NAME          bab6_ds
OBJSENSE
 MIN
ROWS
 N  OBJ
 L  c29353
 L  c29354
 L  c29355
 L  c29356
 L  c29357
 L  c29358
 L  c29359
 L  c29360
 E  c2357
 E  c2358
 E  c2359
 E  c2360
 E  c2361
 E  c2362
 E  c2363
 E  c2364
 E  c1369
 E  c1370
 E  c1371
 E  c1372
 E  c1373
 E  c1374
 E  c1375
 E  c1376
 E  c1377
 E  c1378
 E  c1379
 E  c1380
 E  c1381
 E  c1382
 E  c1383
 E  c1384
 E  c1385
 E  c1386
 E  c2356
 E  c2575
 E  c287
 E  c288
 E  c289
 E  c290
COLUMNS
    MARK0000  'MARKER'                 'INTORG'
    x43215           OBJ                           320 c29353                          3
    x43215           c29354                          1 c29355                          1
    x43215           c29356                        -19 c29357                         -2
    x43215           c29358                         -7 c29359                         -3
    x43215           c29360                         17 c1369                           1
    x43215           c2356                          -1 c287                           -1
    x43216           OBJ                           320 c29353                          3
    x43216           c29354                          1 c29355                          1
    x43216           c29356                        -19 c29357                         -2
    x43216           c29358                         -7 c29359                         -3
    x43216           c29360                         17 c2357                          -1
    x43216           c1370                           1 c288                           -1
    x43217           OBJ                           320 c29353                          3
    x43217           c29354                          1 c29355                          1
    x43217           c29356                        -19 c29357                         -2
    x43217           c29358                         -7 c29359                         -3
    x43217           c29360                         17 c2357                          -1
    x43217           c1371                           1 c289                           -1
    x43218           OBJ                           320 c29353                          3
    x43218           c29354                          1 c29355                          1
    x43218           c29356                        -19 c29357                         -2
    x43218           c29358                         -7 c29359                         -3
    x43218           c29360                         17 c2358                          -1
    x43218           c1372                           1 c290                           -1
    x43219           OBJ                           320 c29353                          3
    x43219           c29354                          1 c29355                          1
    x43219           c29356                        -19 c29357                         -2
    x43219           c29358                         -7 c29359                         -3
    x43219           c29360                         17 c2358                          -1
    x43219           c1373                           1
    x43220           OBJ                           320 c29353                          3
    x43220           c29354                          1 c29355                          1
    x43220           c29356                        -19 c29357                         -2
    x43220           c29358                         -7 c29359                         -3
    x43220           c29360                         17 c2359                          -1
    x43220           c1374                           1
    x43221           OBJ                           320 c29353                          3
    x43221           c29354                          1 c29355                          1
    x43221           c29356                        -19 c29357                         -2
    x43221           c29358                         -7 c29359                         -3
    x43221           c29360                         17 c2359                          -1
    x43221           c1375                           1
    x43222           OBJ                           320 c29353                          3
    x43222           c29354                          1 c29355                          1
    x43222           c29356                        -19 c29357                         -2
    x43222           c29358                         -7 c29359                         -3
    x43222           c29360                         17 c2360                          -1
    x43222           c1376                           1
    x43223           OBJ                           320 c29353                          3
    x43223           c29354                          1 c29355                          1
    x43223           c29356                        -19 c29357                         -2
    x43223           c29358                         -7 c29359                         -3
    x43223           c29360                         17 c2360                          -1
    x43223           c1377                           1
    x43224           OBJ                           320 c29353                          3
    x43224           c29354                          1 c29355                          1
    x43224           c29356                        -19 c29357                         -2
    x43224           c29358                         -7 c29359                         -3
    x43224           c29360                         17 c2361                          -1
    x43224           c1378                           1
    x43225           OBJ                           320 c29353                          3
    x43225           c29354                          1 c29355                          1
    x43225           c29356                        -19 c29357                         -2
    x43225           c29358                         -7 c29359                         -3
    x43225           c29360                         17 c2361                          -1
    x43225           c1379                           1
    x43226           OBJ                           320 c29353                          3
    x43226           c29354                          1 c29355                          1
    x43226           c29356                        -19 c29357                         -2
    x43226           c29358                         -7 c29359                         -3
    x43226           c29360                         17 c2362                          -1
    x43226           c1380                           1
    x43227           OBJ                           320 c29353                          3
    x43227           c29354                          1 c29355                          1
    x43227           c29356                        -19 c29357                         -2
    x43227           c29358                         -7 c29359                         -3
    x43227           c29360                         17 c2362                          -1
    x43227           c1381                           1
    x43228           OBJ                           320 c29353                          3
    x43228           c29354                          1 c29355                          1
    x43228           c29356                        -19 c29357                         -2
    x43228           c29358                         -7 c29359                         -3
    x43228           c29360                         17 c2363                          -1
    x43228           c1382                           1
    x43229           OBJ                           320 c29353                          3
    x43229           c29354                          1 c29355                          1
    x43229           c29356                        -19 c29357                         -2
    x43229           c29358                         -7 c29359                         -3
    x43229           c29360                         17 c2363                          -1
    x43229           c1383                           1
    x43230           OBJ                           320 c29353                          3
    x43230           c29354                          1 c29355                          1
    x43230           c29356                        -19 c29357                         -2
    x43230           c29358                         -7 c29359                         -3
    x43230           c29360                         17 c1384                           1
    x43230           c2575                          -1
    x43231           OBJ                           320 c29353                          3
    x43231           c29354                          1 c29355                          1
    x43231           c29356                        -19 c29357                         -2
    x43231           c29358                         -7 c29359                         -3
    x43231           c29360                         17 c2364                          -1
    x43231           c1385                           1
    x43232           OBJ                           320 c29353                          3
    x43232           c29354                          1 c29355                          1
    x43232           c29356                        -19 c29357                         -2
    x43232           c29358                         -7 c29359                         -3
    x43232           c29360                         17 c2364                          -1
    x43232           c1386                           1
    MARK0001  'MARKER'                 'INTEND'
RHS
    RHS1              c29353                          0
    RHS1              c29354                          0
    RHS1              c29355                          0
    RHS1              c29356                          0
    RHS1              c29357                          0
    RHS1              c29358                          0
    RHS1              c29359                          0
    RHS1              c29360                          0
    RHS1              c2357                           0
    RHS1              c2358                           0
    RHS1              c2359                           0
    RHS1              c2360                           0
    RHS1              c2361                           0
    RHS1              c2362                           0
    RHS1              c2363                           0
    RHS1              c2364                           0
    RHS1              c1369                           0
    RHS1              c1370                           0
    RHS1              c1371                           0
    RHS1              c1372                           0
    RHS1              c1373                           0
    RHS1              c1374                           0
    RHS1              c1375                           0
    RHS1              c1376                           0
    RHS1              c1377                           0
    RHS1              c1378                           0
    RHS1              c1379                           0
    RHS1              c1380                           0
    RHS1              c1381                           0
    RHS1              c1382                           0
    RHS1              c1383                           0
    RHS1              c1384                           0
    RHS1              c1385                           0
    RHS1              c1386                           0
    RHS1              c2356                           0
    RHS1              c2575                           0
    RHS1              c287                            0
    RHS1              c288                            0
    RHS1              c289                            0
    RHS1              c290                            0
BOUNDS
 BV BND1              x43215
 BV BND1              x43216
 BV BND1              x43217
 BV BND1              x43218
 BV BND1              x43219
 BV BND1              x43220
 BV BND1              x43221
 BV BND1              x43222
 BV BND1              x43223
 BV BND1              x43224
 BV BND1              x43225
 BV BND1              x43226
 BV BND1              x43227
 BV BND1              x43228
 BV BND1              x43229
 BV BND1              x43230
 BV BND1              x43231
 BV BND1              x43232
ENDATA
