NAME          supportcase7_ds
OBJSENSE
 MIN
ROWS
 N  OBJ
 L  c5953
 L  c5954
 L  c5955
 L  c5956
 L  c5957
 L  c5960
 L  c5961
 L  c5962
 L  c5963
 L  c5964
 L  c5967
 L  c5968
 L  c5969
 L  c5970
 L  c5971
 L  c5974
 L  c5975
 L  c5976
 L  c5977
 L  c5978
 L  c5981
 L  c5982
 L  c5983
 L  c5984
 L  c5985
 L  c5988
 L  c5989
 L  c5990
 L  c5991
 L  c5992
 L  c5995
 L  c5996
 L  c5997
 L  c5998
 L  c5999
 L  c6002
 L  c6003
 L  c6004
 L  c6005
 L  c6006
COLUMNS
    MARK0000  'MARKER'                 'INTORG'
    B138379(547)     OBJ                             0 c5953                          -1
    B138379(547)     c5954                          -1 c5955                          -1
    B138379(547)     c5956                          -1 c5957                          -1
    B138379(547)     c5960                          -1 c5961                          -1
    B138379(547)     c5962                          -1 c5963                          -1
    B138379(547)     c5964                          -1 c5967                          -1
    B138379(547)     c5968                          -1 c5969                          -1
    B138379(547)     c5970                          -1 c5971                          -1
    B138379(547)     c5974                          -1 c5975                          -1
    B138379(547)     c5976                          -1 c5977                          -1
    B138379(547)     c5978                          -1 c5981                          -1
    B138379(547)     c5982                          -1 c5983                          -1
    B138379(547)     c5984                          -1 c5985                          -1
    B138379(547)     c5988                          -1 c5989                          -1
    B138379(547)     c5990                          -1 c5991                          -1
    B138379(547)     c5992                          -1 c5995                          -1
    B138379(547)     c5996                          -1 c5997                          -1
    B138379(547)     c5998                          -1 c5999                          -1
    B138379(547)     c6002                          -1 c6003                          -1
    B138379(547)     c6004                          -1 c6005                          -1
    B138379(547)     c6006                          -1
    B138385(506)     OBJ                             0 c5953                          -1
    B138385(506)     c5954                          -1 c5955                          -1
    B138385(506)     c5956                          -1 c5957                          -1
    B138385(506)     c5960                          -1 c5961                          -1
    B138385(506)     c5962                          -1 c5963                          -1
    B138385(506)     c5964                          -1 c5967                          -1
    B138385(506)     c5968                          -1 c5969                          -1
    B138385(506)     c5970                          -1 c5971                          -1
    B138385(506)     c5974                          -1 c5975                          -1
    B138385(506)     c5976                          -1 c5977                          -1
    B138385(506)     c5978                          -1 c5981                          -1
    B138385(506)     c5982                          -1 c5983                          -1
    B138385(506)     c5984                          -1 c5985                          -1
    B138385(506)     c5988                          -1 c5989                          -1
    B138385(506)     c5990                          -1 c5991                          -1
    B138385(506)     c5992                          -1 c5995                          -1
    B138385(506)     c5996                          -1 c5997                          -1
    B138385(506)     c5998                          -1 c5999                          -1
    B138385(506)     c6002                          -1 c6003                          -1
    B138385(506)     c6004                          -1 c6005                          -1
    B138385(506)     c6006                          -1
    B138386(506)     OBJ                             0 c5953                          -1
    B138386(506)     c5954                          -1 c5955                          -1
    B138386(506)     c5956                          -1 c5957                          -1
    B138386(506)     c5960                          -1 c5961                          -1
    B138386(506)     c5962                          -1 c5963                          -1
    B138386(506)     c5964                          -1 c5967                          -1
    B138386(506)     c5968                          -1 c5969                          -1
    B138386(506)     c5970                          -1 c5971                          -1
    B138386(506)     c5974                          -1 c5975                          -1
    B138386(506)     c5976                          -1 c5977                          -1
    B138386(506)     c5978                          -1 c5981                          -1
    B138386(506)     c5982                          -1 c5983                          -1
    B138386(506)     c5984                          -1 c5985                          -1
    B138386(506)     c5988                          -1 c5989                          -1
    B138386(506)     c5990                          -1 c5991                          -1
    B138386(506)     c5992                          -1 c5995                          -1
    B138386(506)     c5996                          -1 c5997                          -1
    B138386(506)     c5998                          -1 c5999                          -1
    B138386(506)     c6002                          -1 c6003                          -1
    B138386(506)     c6004                          -1 c6005                          -1
    B138386(506)     c6006                          -1
    B138380(504)     OBJ                             0 c5953                          -1
    B138380(504)     c5954                          -1 c5955                          -1
    B138380(504)     c5956                          -1 c5957                          -1
    B138380(504)     c5960                          -1 c5961                          -1
    B138380(504)     c5962                          -1 c5963                          -1
    B138380(504)     c5964                          -1 c5967                          -1
    B138380(504)     c5968                          -1 c5969                          -1
    B138380(504)     c5970                          -1 c5971                          -1
    B138380(504)     c5974                          -1 c5975                          -1
    B138380(504)     c5976                          -1 c5977                          -1
    B138380(504)     c5978                          -1 c5981                          -1
    B138380(504)     c5982                          -1 c5983                          -1
    B138380(504)     c5984                          -1 c5985                          -1
    B138380(504)     c5988                          -1 c5989                          -1
    B138380(504)     c5990                          -1 c5991                          -1
    B138380(504)     c5992                          -1 c5995                          -1
    B138380(504)     c5996                          -1 c5997                          -1
    B138380(504)     c5998                          -1 c5999                          -1
    B138380(504)     c6002                          -1 c6003                          -1
    B138380(504)     c6004                          -1 c6005                          -1
    B138380(504)     c6006                          -1
    B138383(504)     OBJ                             0 c5953                          -1
    B138383(504)     c5954                          -1 c5955                          -1
    B138383(504)     c5956                          -1 c5957                          -1
    B138383(504)     c5960                          -1 c5961                          -1
    B138383(504)     c5962                          -1 c5963                          -1
    B138383(504)     c5964                          -1 c5967                          -1
    B138383(504)     c5968                          -1 c5969                          -1
    B138383(504)     c5970                          -1 c5971                          -1
    B138383(504)     c5974                          -1 c5975                          -1
    B138383(504)     c5976                          -1 c5977                          -1
    B138383(504)     c5978                          -1 c5981                          -1
    B138383(504)     c5982                          -1 c5983                          -1
    B138383(504)     c5984                          -1 c5985                          -1
    B138383(504)     c5988                          -1 c5989                          -1
    B138383(504)     c5990                          -1 c5991                          -1
    B138383(504)     c5992                          -1 c5995                          -1
    B138383(504)     c5996                          -1 c5997                          -1
    B138383(504)     c5998                          -1 c5999                          -1
    B138383(504)     c6002                          -1 c6003                          -1
    B138383(504)     c6004                          -1 c6005                          -1
    B138383(504)     c6006                          -1
    B138384(504)     OBJ                             0 c5953                          -1
    B138384(504)     c5954                          -1 c5955                          -1
    B138384(504)     c5956                          -1 c5957                          -1
    B138384(504)     c5960                          -1 c5961                          -1
    B138384(504)     c5962                          -1 c5963                          -1
    B138384(504)     c5964                          -1 c5967                          -1
    B138384(504)     c5968                          -1 c5969                          -1
    B138384(504)     c5970                          -1 c5971                          -1
    B138384(504)     c5974                          -1 c5975                          -1
    B138384(504)     c5976                          -1 c5977                          -1
    B138384(504)     c5978                          -1 c5981                          -1
    B138384(504)     c5982                          -1 c5983                          -1
    B138384(504)     c5984                          -1 c5985                          -1
    B138384(504)     c5988                          -1 c5989                          -1
    B138384(504)     c5990                          -1 c5991                          -1
    B138384(504)     c5992                          -1 c5995                          -1
    B138384(504)     c5996                          -1 c5997                          -1
    B138384(504)     c5998                          -1 c5999                          -1
    B138384(504)     c6002                          -1 c6003                          -1
    B138384(504)     c6004                          -1 c6005                          -1
    B138384(504)     c6006                          -1
    B138387(471)     OBJ                             0 c5953                          -1
    B138387(471)     c5954                          -1 c5955                          -1
    B138387(471)     c5956                          -1 c5957                          -1
    B138387(471)     c5960                          -1 c5961                          -1
    B138387(471)     c5962                          -1 c5963                          -1
    B138387(471)     c5964                          -1 c5967                          -1
    B138387(471)     c5968                          -1 c5969                          -1
    B138387(471)     c5970                          -1 c5971                          -1
    B138387(471)     c5974                          -1 c5975                          -1
    B138387(471)     c5976                          -1 c5977                          -1
    B138387(471)     c5978                          -1 c5981                          -1
    B138387(471)     c5982                          -1 c5983                          -1
    B138387(471)     c5984                          -1 c5985                          -1
    B138387(471)     c5988                          -1 c5989                          -1
    B138387(471)     c5990                          -1 c5991                          -1
    B138387(471)     c5992                          -1 c5995                          -1
    B138387(471)     c5996                          -1 c5997                          -1
    B138387(471)     c5998                          -1 c5999                          -1
    B138387(471)     c6002                          -1 c6003                          -1
    B138387(471)     c6004                          -1 c6005                          -1
    B138387(471)     c6006                          -1
    B138393(436)     OBJ                             0 c5953                          -1
    B138393(436)     c5954                          -1 c5955                          -1
    B138393(436)     c5956                          -1 c5957                          -1
    B138393(436)     c5960                          -1 c5961                          -1
    B138393(436)     c5962                          -1 c5963                          -1
    B138393(436)     c5964                          -1 c5967                          -1
    B138393(436)     c5968                          -1 c5969                          -1
    B138393(436)     c5970                          -1 c5971                          -1
    B138393(436)     c5974                          -1 c5975                          -1
    B138393(436)     c5976                          -1 c5977                          -1
    B138393(436)     c5978                          -1 c5981                          -1
    B138393(436)     c5982                          -1 c5983                          -1
    B138393(436)     c5984                          -1 c5985                          -1
    B138393(436)     c5988                          -1 c5989                          -1
    B138393(436)     c5990                          -1 c5991                          -1
    B138393(436)     c5992                          -1 c5995                          -1
    B138393(436)     c5996                          -1 c5997                          -1
    B138393(436)     c5998                          -1 c5999                          -1
    B138393(436)     c6002                          -1 c6003                          -1
    B138393(436)     c6004                          -1 c6005                          -1
    B138393(436)     c6006                          -1
    B138394(436)     OBJ                             0 c5953                          -1
    B138394(436)     c5954                          -1 c5955                          -1
    B138394(436)     c5956                          -1 c5957                          -1
    B138394(436)     c5960                          -1 c5961                          -1
    B138394(436)     c5962                          -1 c5963                          -1
    B138394(436)     c5964                          -1 c5967                          -1
    B138394(436)     c5968                          -1 c5969                          -1
    B138394(436)     c5970                          -1 c5971                          -1
    B138394(436)     c5974                          -1 c5975                          -1
    B138394(436)     c5976                          -1 c5977                          -1
    B138394(436)     c5978                          -1 c5981                          -1
    B138394(436)     c5982                          -1 c5983                          -1
    B138394(436)     c5984                          -1 c5985                          -1
    B138394(436)     c5988                          -1 c5989                          -1
    B138394(436)     c5990                          -1 c5991                          -1
    B138394(436)     c5992                          -1 c5995                          -1
    B138394(436)     c5996                          -1 c5997                          -1
    B138394(436)     c5998                          -1 c5999                          -1
    B138394(436)     c6002                          -1 c6003                          -1
    B138394(436)     c6004                          -1 c6005                          -1
    B138394(436)     c6006                          -1
    B138388(434)     OBJ                             0 c5953                          -1
    B138388(434)     c5954                          -1 c5955                          -1
    B138388(434)     c5956                          -1 c5957                          -1
    B138388(434)     c5960                          -1 c5961                          -1
    B138388(434)     c5962                          -1 c5963                          -1
    B138388(434)     c5964                          -1 c5967                          -1
    B138388(434)     c5968                          -1 c5969                          -1
    B138388(434)     c5970                          -1 c5971                          -1
    B138388(434)     c5974                          -1 c5975                          -1
    B138388(434)     c5976                          -1 c5977                          -1
    B138388(434)     c5978                          -1 c5981                          -1
    B138388(434)     c5982                          -1 c5983                          -1
    B138388(434)     c5984                          -1 c5985                          -1
    B138388(434)     c5988                          -1 c5989                          -1
    B138388(434)     c5990                          -1 c5991                          -1
    B138388(434)     c5992                          -1 c5995                          -1
    B138388(434)     c5996                          -1 c5997                          -1
    B138388(434)     c5998                          -1 c5999                          -1
    B138388(434)     c6002                          -1 c6003                          -1
    B138388(434)     c6004                          -1 c6005                          -1
    B138388(434)     c6006                          -1
    B138391(434)     OBJ                             0 c5953                          -1
    B138391(434)     c5954                          -1 c5955                          -1
    B138391(434)     c5956                          -1 c5957                          -1
    B138391(434)     c5960                          -1 c5961                          -1
    B138391(434)     c5962                          -1 c5963                          -1
    B138391(434)     c5964                          -1 c5967                          -1
    B138391(434)     c5968                          -1 c5969                          -1
    B138391(434)     c5970                          -1 c5971                          -1
    B138391(434)     c5974                          -1 c5975                          -1
    B138391(434)     c5976                          -1 c5977                          -1
    B138391(434)     c5978                          -1 c5981                          -1
    B138391(434)     c5982                          -1 c5983                          -1
    B138391(434)     c5984                          -1 c5985                          -1
    B138391(434)     c5988                          -1 c5989                          -1
    B138391(434)     c5990                          -1 c5991                          -1
    B138391(434)     c5992                          -1 c5995                          -1
    B138391(434)     c5996                          -1 c5997                          -1
    B138391(434)     c5998                          -1 c5999                          -1
    B138391(434)     c6002                          -1 c6003                          -1
    B138391(434)     c6004                          -1 c6005                          -1
    B138391(434)     c6006                          -1
    B138392(434)     OBJ                             0 c5953                          -1
    B138392(434)     c5954                          -1 c5955                          -1
    B138392(434)     c5956                          -1 c5957                          -1
    B138392(434)     c5960                          -1 c5961                          -1
    B138392(434)     c5962                          -1 c5963                          -1
    B138392(434)     c5964                          -1 c5967                          -1
    B138392(434)     c5968                          -1 c5969                          -1
    B138392(434)     c5970                          -1 c5971                          -1
    B138392(434)     c5974                          -1 c5975                          -1
    B138392(434)     c5976                          -1 c5977                          -1
    B138392(434)     c5978                          -1 c5981                          -1
    B138392(434)     c5982                          -1 c5983                          -1
    B138392(434)     c5984                          -1 c5985                          -1
    B138392(434)     c5988                          -1 c5989                          -1
    B138392(434)     c5990                          -1 c5991                          -1
    B138392(434)     c5992                          -1 c5995                          -1
    B138392(434)     c5996                          -1 c5997                          -1
    B138392(434)     c5998                          -1 c5999                          -1
    B138392(434)     c6002                          -1 c6003                          -1
    B138392(434)     c6004                          -1 c6005                          -1
    B138392(434)     c6006                          -1
    B138395(394)     OBJ                             0 c5953                          -1
    B138395(394)     c5954                          -1 c5955                          -1
    B138395(394)     c5956                          -1 c5957                          -1
    B138395(394)     c5960                          -1 c5961                          -1
    B138395(394)     c5962                          -1 c5963                          -1
    B138395(394)     c5964                          -1 c5967                          -1
    B138395(394)     c5968                          -1 c5969                          -1
    B138395(394)     c5970                          -1 c5971                          -1
    B138395(394)     c5974                          -1 c5975                          -1
    B138395(394)     c5976                          -1 c5977                          -1
    B138395(394)     c5978                          -1 c5981                          -1
    B138395(394)     c5982                          -1 c5983                          -1
    B138395(394)     c5984                          -1 c5985                          -1
    B138395(394)     c5988                          -1 c5989                          -1
    B138395(394)     c5990                          -1 c5991                          -1
    B138395(394)     c5992                          -1 c5995                          -1
    B138395(394)     c5996                          -1 c5997                          -1
    B138395(394)     c5998                          -1 c5999                          -1
    B138395(394)     c6002                          -1 c6003                          -1
    B138395(394)     c6004                          -1 c6005                          -1
    B138395(394)     c6006                          -1
    B138401(365)     OBJ                             0 c5953                          -1
    B138401(365)     c5954                          -1 c5955                          -1
    B138401(365)     c5956                          -1 c5957                          -1
    B138401(365)     c5960                          -1 c5961                          -1
    B138401(365)     c5962                          -1 c5963                          -1
    B138401(365)     c5964                          -1 c5967                          -1
    B138401(365)     c5968                          -1 c5969                          -1
    B138401(365)     c5970                          -1 c5971                          -1
    B138401(365)     c5974                          -1 c5975                          -1
    B138401(365)     c5976                          -1 c5977                          -1
    B138401(365)     c5978                          -1 c5981                          -1
    B138401(365)     c5982                          -1 c5983                          -1
    B138401(365)     c5984                          -1 c5985                          -1
    B138401(365)     c5988                          -1 c5989                          -1
    B138401(365)     c5990                          -1 c5991                          -1
    B138401(365)     c5992                          -1 c5995                          -1
    B138401(365)     c5996                          -1 c5997                          -1
    B138401(365)     c5998                          -1 c5999                          -1
    B138401(365)     c6002                          -1 c6003                          -1
    B138401(365)     c6004                          -1 c6005                          -1
    B138401(365)     c6006                          -1
    B138402(365)     OBJ                             0 c5953                          -1
    B138402(365)     c5954                          -1 c5955                          -1
    B138402(365)     c5956                          -1 c5957                          -1
    B138402(365)     c5960                          -1 c5961                          -1
    B138402(365)     c5962                          -1 c5963                          -1
    B138402(365)     c5964                          -1 c5967                          -1
    B138402(365)     c5968                          -1 c5969                          -1
    B138402(365)     c5970                          -1 c5971                          -1
    B138402(365)     c5974                          -1 c5975                          -1
    B138402(365)     c5976                          -1 c5977                          -1
    B138402(365)     c5978                          -1 c5981                          -1
    B138402(365)     c5982                          -1 c5983                          -1
    B138402(365)     c5984                          -1 c5985                          -1
    B138402(365)     c5988                          -1 c5989                          -1
    B138402(365)     c5990                          -1 c5991                          -1
    B138402(365)     c5992                          -1 c5995                          -1
    B138402(365)     c5996                          -1 c5997                          -1
    B138402(365)     c5998                          -1 c5999                          -1
    B138402(365)     c6002                          -1 c6003                          -1
    B138402(365)     c6004                          -1 c6005                          -1
    B138402(365)     c6006                          -1
    B138396(363)     OBJ                             0 c5953                          -1
    B138396(363)     c5954                          -1 c5955                          -1
    B138396(363)     c5956                          -1 c5957                          -1
    B138396(363)     c5960                          -1 c5961                          -1
    B138396(363)     c5962                          -1 c5963                          -1
    B138396(363)     c5964                          -1 c5967                          -1
    B138396(363)     c5968                          -1 c5969                          -1
    B138396(363)     c5970                          -1 c5971                          -1
    B138396(363)     c5974                          -1 c5975                          -1
    B138396(363)     c5976                          -1 c5977                          -1
    B138396(363)     c5978                          -1 c5981                          -1
    B138396(363)     c5982                          -1 c5983                          -1
    B138396(363)     c5984                          -1 c5985                          -1
    B138396(363)     c5988                          -1 c5989                          -1
    B138396(363)     c5990                          -1 c5991                          -1
    B138396(363)     c5992                          -1 c5995                          -1
    B138396(363)     c5996                          -1 c5997                          -1
    B138396(363)     c5998                          -1 c5999                          -1
    B138396(363)     c6002                          -1 c6003                          -1
    B138396(363)     c6004                          -1 c6005                          -1
    B138396(363)     c6006                          -1
    B138399(363)     OBJ                             0 c5953                          -1
    B138399(363)     c5954                          -1 c5955                          -1
    B138399(363)     c5956                          -1 c5957                          -1
    B138399(363)     c5960                          -1 c5961                          -1
    B138399(363)     c5962                          -1 c5963                          -1
    B138399(363)     c5964                          -1 c5967                          -1
    B138399(363)     c5968                          -1 c5969                          -1
    B138399(363)     c5970                          -1 c5971                          -1
    B138399(363)     c5974                          -1 c5975                          -1
    B138399(363)     c5976                          -1 c5977                          -1
    B138399(363)     c5978                          -1 c5981                          -1
    B138399(363)     c5982                          -1 c5983                          -1
    B138399(363)     c5984                          -1 c5985                          -1
    B138399(363)     c5988                          -1 c5989                          -1
    B138399(363)     c5990                          -1 c5991                          -1
    B138399(363)     c5992                          -1 c5995                          -1
    B138399(363)     c5996                          -1 c5997                          -1
    B138399(363)     c5998                          -1 c5999                          -1
    B138399(363)     c6002                          -1 c6003                          -1
    B138399(363)     c6004                          -1 c6005                          -1
    B138399(363)     c6006                          -1
    B138400(363)     OBJ                             0 c5953                          -1
    B138400(363)     c5954                          -1 c5955                          -1
    B138400(363)     c5956                          -1 c5957                          -1
    B138400(363)     c5960                          -1 c5961                          -1
    B138400(363)     c5962                          -1 c5963                          -1
    B138400(363)     c5964                          -1 c5967                          -1
    B138400(363)     c5968                          -1 c5969                          -1
    B138400(363)     c5970                          -1 c5971                          -1
    B138400(363)     c5974                          -1 c5975                          -1
    B138400(363)     c5976                          -1 c5977                          -1
    B138400(363)     c5978                          -1 c5981                          -1
    B138400(363)     c5982                          -1 c5983                          -1
    B138400(363)     c5984                          -1 c5985                          -1
    B138400(363)     c5988                          -1 c5989                          -1
    B138400(363)     c5990                          -1 c5991                          -1
    B138400(363)     c5992                          -1 c5995                          -1
    B138400(363)     c5996                          -1 c5997                          -1
    B138400(363)     c5998                          -1 c5999                          -1
    B138400(363)     c6002                          -1 c6003                          -1
    B138400(363)     c6004                          -1 c6005                          -1
    B138400(363)     c6006                          -1
    MARK0001  'MARKER'                 'INTEND'
RHS
    RHS1              c5953                           0
    RHS1              c5954                           0
    RHS1              c5955                           0
    RHS1              c5956                           0
    RHS1              c5957                           0
    RHS1              c5960                           0
    RHS1              c5961                           0
    RHS1              c5962                           0
    RHS1              c5963                           0
    RHS1              c5964                           0
    RHS1              c5967                           0
    RHS1              c5968                           0
    RHS1              c5969                           0
    RHS1              c5970                           0
    RHS1              c5971                           0
    RHS1              c5974                           0
    RHS1              c5975                           0
    RHS1              c5976                           0
    RHS1              c5977                           0
    RHS1              c5978                           0
    RHS1              c5981                           0
    RHS1              c5982                           0
    RHS1              c5983                           0
    RHS1              c5984                           0
    RHS1              c5985                           0
    RHS1              c5988                           0
    RHS1              c5989                           0
    RHS1              c5990                           0
    RHS1              c5991                           0
    RHS1              c5992                           0
    RHS1              c5995                           0
    RHS1              c5996                           0
    RHS1              c5997                           0
    RHS1              c5998                           0
    RHS1              c5999                           0
    RHS1              c6002                           0
    RHS1              c6003                           0
    RHS1              c6004                           0
    RHS1              c6005                           0
    RHS1              c6006                           0
BOUNDS
 BV BND1              B138379(547)
 BV BND1              B138385(506)
 BV BND1              B138386(506)
 BV BND1              B138380(504)
 BV BND1              B138383(504)
 BV BND1              B138384(504)
 BV BND1              B138387(471)
 BV BND1              B138393(436)
 BV BND1              B138394(436)
 BV BND1              B138388(434)
 BV BND1              B138391(434)
 BV BND1              B138392(434)
 BV BND1              B138395(394)
 BV BND1              B138401(365)
 BV BND1              B138402(365)
 BV BND1              B138396(363)
 BV BND1              B138399(363)
 BV BND1              B138400(363)
ENDATA
