NAME          co-100_ds
OBJSENSE
 MIN
ROWS
 N  OBJ
 L  c100
 L  c1019
 L  c1026
 L  c1066
 L  c1068
 L  c1144
 L  c1145
 L  c1149
 E  c12
 E  c20
 L  c232
 L  c283
 L  c387
 L  c397
 E  c42
 L  c462
 E  c47
 L  c473
 L  c477
 E  c48
 L  c482
 L  c511
 L  c525
 E  c53
 L  c547
 L  c559
 L  c564
 E  c58
 L  c602
 E  c64
 L  c689
 L  c696
 L  c698
 E  c7
 E  c71
 L  c741
 L  c760
 E  c8
 L  c802
 L  c808
COLUMNS
    MARK0000  'MARKER'                 'INTORG'
    x41356           OBJ                        717870 c100                            1
    x41356           c1019                           1 c1026                           1
    x41356           c1066                           1 c1068                           1
    x41356           c1144                           1 c1145                           1
    x41356           c1149                           1 c12                             1
    x41356           c20                             1 c232                            1
    x41356           c283                            1 c387                            1
    x41356           c397                            1 c42                             1
    x41356           c462                            1 c47                             1
    x41356           c473                            1 c477                            1
    x41356           c48                             1 c482                            1
    x41356           c511                            1 c525                            1
    x41356           c53                             1 c547                            1
    x41356           c559                            1 c564                            1
    x41356           c58                             1 c602                            1
    x41356           c64                             1 c689                            1
    x41356           c696                            1 c698                            1
    x41356           c7                              1 c71                             1
    x41356           c741                            1 c760                            1
    x41356           c8                              1 c802                            1
    x41356           c808                            1
    x41357           OBJ                        651800 c100                            1
    x41357           c1019                           1 c1026                           1
    x41357           c1066                           1 c1068                           1
    x41357           c1144                           1 c1145                           1
    x41357           c1149                           1 c12                             1
    x41357           c20                             1 c232                            1
    x41357           c283                            1 c387                            1
    x41357           c397                            1 c42                             1
    x41357           c462                            1 c47                             1
    x41357           c473                            1 c477                            1
    x41357           c48                             1 c482                            1
    x41357           c511                            1 c525                            1
    x41357           c53                             1 c547                            1
    x41357           c559                            1 c564                            1
    x41357           c58                             1 c602                            1
    x41357           c64                             1 c689                            1
    x41357           c696                            1 c698                            1
    x41357           c7                              1 c71                             1
    x41357           c741                            1 c760                            1
    x41357           c8                              1 c802                            1
    x41357           c808                            1
    x41428           OBJ                        618536 c100                            1
    x41428           c1019                           1 c1026                           1
    x41428           c1066                           1 c1068                           1
    x41428           c1144                           1 c1145                           1
    x41428           c1149                           1 c12                             1
    x41428           c20                             1 c232                            1
    x41428           c283                            1 c387                            1
    x41428           c397                            1 c42                             1
    x41428           c462                            1 c47                             1
    x41428           c473                            1 c477                            1
    x41428           c48                             1 c482                            1
    x41428           c511                            1 c525                            1
    x41428           c53                             1 c547                            1
    x41428           c559                            1 c564                            1
    x41428           c58                             1 c602                            1
    x41428           c64                             1 c689                            1
    x41428           c696                            1 c698                            1
    x41428           c7                              1 c71                             1
    x41428           c741                            1 c760                            1
    x41428           c8                              1 c802                            1
    x41428           c808                            1
    x40696           OBJ                        652976 c100                            1
    x40696           c1019                           1 c1026                           1
    x40696           c1066                           1 c1068                           1
    x40696           c1144                           1 c1145                           1
    x40696           c1149                           1 c12                             1
    x40696           c20                             1 c232                            1
    x40696           c283                            1 c387                            1
    x40696           c397                            1 c42                             1
    x40696           c462                            1 c47                             1
    x40696           c473                            1 c477                            1
    x40696           c48                             1 c482                            1
    x40696           c511                            1 c525                            1
    x40696           c53                             1 c547                            1
    x40696           c559                            1 c564                            1
    x40696           c58                             1 c602                            1
    x40696           c64                             1 c689                            1
    x40696           c696                            1 c698                            1
    x40696           c7                              1 c71                             1
    x40696           c741                            1 c760                            1
    x40696           c8                              1 c802                            1
    x40696           c808                            1
    x41358           OBJ                        682816 c100                            1
    x41358           c1019                           1 c1026                           1
    x41358           c1066                           1 c1068                           1
    x41358           c1144                           1 c1145                           1
    x41358           c1149                           1 c12                             1
    x41358           c20                             1 c232                            1
    x41358           c283                            1 c387                            1
    x41358           c397                            1 c42                             1
    x41358           c462                            1 c47                             1
    x41358           c473                            1 c477                            1
    x41358           c48                             1 c482                            1
    x41358           c511                            1 c525                            1
    x41358           c53                             1 c547                            1
    x41358           c559                            1 c564                            1
    x41358           c58                             1 c602                            1
    x41358           c64                             1 c689                            1
    x41358           c696                            1 c698                            1
    x41358           c7                              1 c71                             1
    x41358           c741                            1 c760                            1
    x41358           c8                              1 c802                            1
    x41358           c808                            1
    x41429           OBJ                        653920 c100                            1
    x41429           c1019                           1 c1026                           1
    x41429           c1066                           1 c1068                           1
    x41429           c1144                           1 c1145                           1
    x41429           c1149                           1 c12                             1
    x41429           c20                             1 c232                            1
    x41429           c283                            1 c387                            1
    x41429           c397                            1 c42                             1
    x41429           c462                            1 c47                             1
    x41429           c473                            1 c477                            1
    x41429           c48                             1 c482                            1
    x41429           c511                            1 c525                            1
    x41429           c53                             1 c547                            1
    x41429           c559                            1 c564                            1
    x41429           c58                             1 c602                            1
    x41429           c64                             1 c689                            1
    x41429           c696                            1 c698                            1
    x41429           c7                              1 c71                             1
    x41429           c741                            1 c760                            1
    x41429           c8                              1 c802                            1
    x41429           c808                            1
    x42506           OBJ                        653984 c100                            1
    x42506           c1019                           1 c1026                           1
    x42506           c1066                           1 c1068                           1
    x42506           c1144                           1 c1145                           1
    x42506           c1149                           1 c12                             1
    x42506           c20                             1 c232                            1
    x42506           c283                            1 c387                            1
    x42506           c397                            1 c42                             1
    x42506           c462                            1 c47                             1
    x42506           c473                            1 c477                            1
    x42506           c48                             1 c482                            1
    x42506           c511                            1 c525                            1
    x42506           c53                             1 c547                            1
    x42506           c559                            1 c564                            1
    x42506           c58                             1 c602                            1
    x42506           c64                             1 c689                            1
    x42506           c696                            1 c698                            1
    x42506           c7                              1 c71                             1
    x42506           c741                            1 c760                            1
    x42506           c8                              1 c802                            1
    x42506           c808                            1
    x12172           OBJ                        659780 c100                            1
    x12172           c1019                           1 c1026                           1
    x12172           c1066                           1 c1068                           1
    x12172           c1144                           1 c1145                           1
    x12172           c1149                           1 c12                             1
    x12172           c20                             1 c232                            1
    x12172           c283                            1 c387                            1
    x12172           c397                            1 c42                             1
    x12172           c462                            1 c47                             1
    x12172           c473                            1 c477                            1
    x12172           c48                             1 c482                            1
    x12172           c511                            1 c525                            1
    x12172           c53                             1 c547                            1
    x12172           c559                            1 c564                            1
    x12172           c58                             1 c602                            1
    x12172           c64                             1 c689                            1
    x12172           c696                            1 c698                            1
    x12172           c7                              1 c71                             1
    x12172           c741                            1 c760                            1
    x12172           c8                              1 c802                            1
    x12172           c808                            1
    x12178           OBJ                        666080 c100                            1
    x12178           c1019                           1 c1026                           1
    x12178           c1066                           1 c1068                           1
    x12178           c1144                           1 c1145                           1
    x12178           c1149                           1 c12                             1
    x12178           c20                             1 c232                            1
    x12178           c283                            1 c387                            1
    x12178           c397                            1 c42                             1
    x12178           c462                            1 c47                             1
    x12178           c473                            1 c477                            1
    x12178           c48                             1 c482                            1
    x12178           c511                            1 c525                            1
    x12178           c53                             1 c547                            1
    x12178           c559                            1 c564                            1
    x12178           c58                             1 c602                            1
    x12178           c64                             1 c689                            1
    x12178           c696                            1 c698                            1
    x12178           c7                              1 c71                             1
    x12178           c741                            1 c760                            1
    x12178           c8                              1 c802                            1
    x12178           c808                            1
    x40690           OBJ                        651800 c100                            1
    x40690           c1019                           1 c1026                           1
    x40690           c1066                           1 c1068                           1
    x40690           c1144                           1 c1145                           1
    x40690           c1149                           1 c12                             1
    x40690           c20                             1 c232                            1
    x40690           c283                            1 c387                            1
    x40690           c397                            1 c42                             1
    x40690           c462                            1 c47                             1
    x40690           c473                            1 c477                            1
    x40690           c48                             1 c482                            1
    x40690           c511                            1 c525                            1
    x40690           c53                             1 c547                            1
    x40690           c559                            1 c564                            1
    x40690           c58                             1 c602                            1
    x40690           c64                             1 c689                            1
    x40690           c696                            1 c698                            1
    x40690           c7                              1 c71                             1
    x40690           c741                            1 c760                            1
    x40690           c8                              1 c802                            1
    x40690           c808                            1
    x40697           OBJ                        683992 c100                            1
    x40697           c1019                           1 c1026                           1
    x40697           c1066                           1 c1068                           1
    x40697           c1144                           1 c1145                           1
    x40697           c1149                           1 c12                             1
    x40697           c20                             1 c232                            1
    x40697           c283                            1 c387                            1
    x40697           c397                            1 c42                             1
    x40697           c462                            1 c47                             1
    x40697           c473                            1 c477                            1
    x40697           c48                             1 c482                            1
    x40697           c511                            1 c525                            1
    x40697           c53                             1 c547                            1
    x40697           c559                            1 c564                            1
    x40697           c58                             1 c602                            1
    x40697           c64                             1 c689                            1
    x40697           c696                            1 c698                            1
    x40697           c7                              1 c71                             1
    x40697           c741                            1 c760                            1
    x40697           c8                              1 c802                            1
    x40697           c808                            1
    x40714           OBJ                        651884 c100                            1
    x40714           c1019                           1 c1026                           1
    x40714           c1066                           1 c1068                           1
    x40714           c1144                           1 c1145                           1
    x40714           c1149                           1 c12                             1
    x40714           c20                             1 c232                            1
    x40714           c283                            1 c387                            1
    x40714           c397                            1 c42                             1
    x40714           c462                            1 c47                             1
    x40714           c473                            1 c477                            1
    x40714           c48                             1 c482                            1
    x40714           c511                            1 c525                            1
    x40714           c53                             1 c547                            1
    x40714           c559                            1 c564                            1
    x40714           c58                             1 c602                            1
    x40714           c64                             1 c689                            1
    x40714           c696                            1 c698                            1
    x40714           c7                              1 c71                             1
    x40714           c741                            1 c760                            1
    x40714           c8                              1 c802                            1
    x40714           c808                            1
    x41359           OBJ                        719712 c100                            1
    x41359           c1019                           1 c1026                           1
    x41359           c1066                           1 c1068                           1
    x41359           c1144                           1 c1145                           1
    x41359           c1149                           1 c12                             1
    x41359           c20                             1 c232                            1
    x41359           c283                            1 c387                            1
    x41359           c397                            1 c42                             1
    x41359           c462                            1 c47                             1
    x41359           c473                            1 c477                            1
    x41359           c48                             1 c482                            1
    x41359           c511                            1 c525                            1
    x41359           c53                             1 c547                            1
    x41359           c559                            1 c564                            1
    x41359           c58                             1 c602                            1
    x41359           c64                             1 c689                            1
    x41359           c696                            1 c698                            1
    x41359           c7                              1 c71                             1
    x41359           c741                            1 c760                            1
    x41359           c8                              1 c802                            1
    x41359           c808                            1
    x41380           OBJ                        615512 c100                            1
    x41380           c1019                           1 c1026                           1
    x41380           c1066                           1 c1068                           1
    x41380           c1144                           1 c1145                           1
    x41380           c1149                           1 c12                             1
    x41380           c20                             1 c232                            1
    x41380           c283                            1 c387                            1
    x41380           c397                            1 c42                             1
    x41380           c462                            1 c47                             1
    x41380           c473                            1 c477                            1
    x41380           c48                             1 c482                            1
    x41380           c511                            1 c525                            1
    x41380           c53                             1 c547                            1
    x41380           c559                            1 c564                            1
    x41380           c58                             1 c602                            1
    x41380           c64                             1 c689                            1
    x41380           c696                            1 c698                            1
    x41380           c7                              1 c71                             1
    x41380           c741                            1 c760                            1
    x41380           c8                              1 c802                            1
    x41380           c808                            1
    x41430           OBJ                        684936 c100                            1
    x41430           c1019                           1 c1026                           1
    x41430           c1066                           1 c1068                           1
    x41430           c1144                           1 c1145                           1
    x41430           c1149                           1 c12                             1
    x41430           c20                             1 c232                            1
    x41430           c283                            1 c387                            1
    x41430           c397                            1 c42                             1
    x41430           c462                            1 c47                             1
    x41430           c473                            1 c477                            1
    x41430           c48                             1 c482                            1
    x41430           c511                            1 c525                            1
    x41430           c53                             1 c547                            1
    x41430           c559                            1 c564                            1
    x41430           c58                             1 c602                            1
    x41430           c64                             1 c689                            1
    x41430           c696                            1 c698                            1
    x41430           c7                              1 c71                             1
    x41430           c741                            1 c760                            1
    x41430           c8                              1 c802                            1
    x41430           c808                            1
    x41698           OBJ                        616016 c100                            1
    x41698           c1019                           1 c1026                           1
    x41698           c1066                           1 c1068                           1
    x41698           c1144                           1 c1145                           1
    x41698           c1149                           1 c12                             1
    x41698           c20                             1 c232                            1
    x41698           c283                            1 c387                            1
    x41698           c397                            1 c42                             1
    x41698           c462                            1 c47                             1
    x41698           c473                            1 c477                            1
    x41698           c48                             1 c482                            1
    x41698           c511                            1 c525                            1
    x41698           c53                             1 c547                            1
    x41698           c559                            1 c564                            1
    x41698           c58                             1 c602                            1
    x41698           c64                             1 c689                            1
    x41698           c696                            1 c698                            1
    x41698           c7                              1 c71                             1
    x41698           c741                            1 c760                            1
    x41698           c8                              1 c802                            1
    x41698           c808                            1
    x42500           OBJ                        652808 c100                            1
    x42500           c1019                           1 c1026                           1
    x42500           c1066                           1 c1068                           1
    x42500           c1144                           1 c1145                           1
    x42500           c1149                           1 c12                             1
    x42500           c20                             1 c232                            1
    x42500           c283                            1 c387                            1
    x42500           c397                            1 c42                             1
    x42500           c462                            1 c47                             1
    x42500           c473                            1 c477                            1
    x42500           c48                             1 c482                            1
    x42500           c511                            1 c525                            1
    x42500           c53                             1 c547                            1
    x42500           c559                            1 c564                            1
    x42500           c58                             1 c602                            1
    x42500           c64                             1 c689                            1
    x42500           c696                            1 c698                            1
    x42500           c7                              1 c71                             1
    x42500           c741                            1 c760                            1
    x42500           c8                              1 c802                            1
    x42500           c808                            1
    x42507           OBJ                        685000 c100                            1
    x42507           c1019                           1 c1026                           1
    x42507           c1066                           1 c1068                           1
    x42507           c1144                           1 c1145                           1
    x42507           c1149                           1 c12                             1
    x42507           c20                             1 c232                            1
    x42507           c283                            1 c387                            1
    x42507           c397                            1 c42                             1
    x42507           c462                            1 c47                             1
    x42507           c473                            1 c477                            1
    x42507           c48                             1 c482                            1
    x42507           c511                            1 c525                            1
    x42507           c53                             1 c547                            1
    x42507           c559                            1 c564                            1
    x42507           c58                             1 c602                            1
    x42507           c64                             1 c689                            1
    x42507           c696                            1 c698                            1
    x42507           c7                              1 c71                             1
    x42507           c741                            1 c760                            1
    x42507           c8                              1 c802                            1
    x42507           c808                            1
    MARK0001  'MARKER'                 'INTEND'
RHS
    RHS1              c100                            0
    RHS1              c1019                           0
    RHS1              c1026                           0
    RHS1              c1066                           0
    RHS1              c1068                           0
    RHS1              c1144                           0
    RHS1              c1145                           0
    RHS1              c1149                           0
    RHS1              c12                             0
    RHS1              c20                             0
    RHS1              c232                            0
    RHS1              c283                            0
    RHS1              c387                            0
    RHS1              c397                            0
    RHS1              c42                             0
    RHS1              c462                            0
    RHS1              c47                             0
    RHS1              c473                            0
    RHS1              c477                            0
    RHS1              c48                             0
    RHS1              c482                            0
    RHS1              c511                            0
    RHS1              c525                            0
    RHS1              c53                             0
    RHS1              c547                            0
    RHS1              c559                            0
    RHS1              c564                            0
    RHS1              c58                             0
    RHS1              c602                            0
    RHS1              c64                             0
    RHS1              c689                            0
    RHS1              c696                            0
    RHS1              c698                            0
    RHS1              c7                              0
    RHS1              c71                             0
    RHS1              c741                            0
    RHS1              c760                            0
    RHS1              c8                              0
    RHS1              c802                            0
    RHS1              c808                            0
BOUNDS
 BV BND1              x41356
 BV BND1              x41357
 BV BND1              x41428
 BV BND1              x40696
 BV BND1              x41358
 BV BND1              x41429
 BV BND1              x42506
 BV BND1              x12172
 BV BND1              x12178
 BV BND1              x40690
 BV BND1              x40697
 BV BND1              x40714
 BV BND1              x41359
 BV BND1              x41380
 BV BND1              x41430
 BV BND1              x41698
 BV BND1              x42500
 BV BND1              x42507
ENDATA
