NAME          neos-4722843-widden_ds
OBJSENSE
 MIN
ROWS
 N  OBJ
 L  R112997
 L  R112998
 L  R112999
 L  R113000
 L  R113175
 L  R113179
 L  R113185
 L  R113189
 G  R113195
 G  R113199
 G  R113205
 G  R113209
 G  R113522
 G  R113526
 L  R113532
 L  R113536
 E  R113542
 E  R113543
 L  R113544
 L  R113545
 L  R113548
 L  R113551
 E  R8274
 E  R8275
 G  R9116
 G  R9117
 G  R100000
 G  R100002
 G  R100004
 G  R100006
 G  R100008
 G  R100010
 G  R100012
 G  R100014
 G  R100016
 G  R100018
 G  R100020
 G  R100022
 G  R100024
 G  R100026
COLUMNS
    MARK0000  'MARKER'                 'INTORG'
    C17316           OBJ                             0 R112998                         1
    C17316           R113185                         1 R113205                       100
    C17316           R113542                         1 R8275                           1
    C17316           R9116                          -1
    C17318           OBJ                             0 R113000                         1
    C17318           R113189                         1 R113209                       100
    C17318           R113543                         1 R8275                           1
    C17318           R9117                          -1
    C17320           OBJ                             0 R112998                         1
    C17320           R113185                         1 R113205                       100
    C17320           R113544                         1
    C17328           OBJ                             0 R113000                         1
    C17328           R113189                         1 R113209                       100
    C17328           R113548                         1
    C17322           OBJ                             0 R113545                         1
    C17324           OBJ                             0
    C17326           OBJ                             0 R100000                        -1
    C17326           R100002                        -1 R100004                        -1
    C17326           R100006                        -1 R100008                        -1
    C17326           R100010                        -1 R100012                        -1
    C17326           R100014                        -1 R100016                        -1
    C17326           R100018                        -1 R100020                        -1
    C17326           R100022                        -1 R100024                        -1
    C17326           R100026                        -1
    C17330           OBJ                             0
    C17332           OBJ                             0
    C17334           OBJ                             0 R113551                         1
    C17336           OBJ                             0
    C17338           OBJ                             0
    C17317           OBJ                             0 R112999                         1
    C17317           R113179                         1 R113199                       100
    C17317           R113526                      1296 R113536                      1296
    C17317           R113543                        -1 R8274                           1
    C17317           R9117                          -1
    C17315           OBJ                             0 R112997                         1
    C17315           R113175                         1 R113195                       100
    C17315           R113522                      1296 R113532                      1296
    C17315           R113542                        -1 R8274                           1
    C17315           R9116                          -1
    C17327           OBJ                             0 R112999                         1
    C17327           R113179                         1 R113199                       100
    C17327           R113526                      1296 R113536                      1296
    C17327           R113548                         1
    C17319           OBJ                             0 R112997                         1
    C17319           R113175                         1 R113195                       100
    C17319           R113522                      1296 R113532                      1296
    C17319           R113544                         1
    C17333           OBJ                             0 R113551                         1
    C17321           OBJ                             0 R113545                         1
    MARK0001  'MARKER'                 'INTEND'
RHS
    RHS1              R112997                         1
    RHS1              R112998                         1
    RHS1              R112999                         1
    RHS1              R113000                         1
    RHS1              R113175                         0
    RHS1              R113179                         0
    RHS1              R113185                         0
    RHS1              R113189                         0
    RHS1              R113195                         0
    RHS1              R113199                         0
    RHS1              R113205                         0
    RHS1              R113209                         0
    RHS1              R113522                         0
    RHS1              R113526                         0
    RHS1              R113532                         0
    RHS1              R113536                         0
    RHS1              R113542                         0
    RHS1              R113543                         0
    RHS1              R113544                         1
    RHS1              R113545                         1
    RHS1              R113548                         1
    RHS1              R113551                         1
    RHS1              R8274                           0
    RHS1              R8275                           0
    RHS1              R9116                          -1
    RHS1              R9117                          -1
    RHS1              R100000                        -1
    RHS1              R100002                        -1
    RHS1              R100004                        -1
    RHS1              R100006                        -1
    RHS1              R100008                        -1
    RHS1              R100010                        -1
    RHS1              R100012                        -1
    RHS1              R100014                        -1
    RHS1              R100016                        -1
    RHS1              R100018                        -1
    RHS1              R100020                        -1
    RHS1              R100022                        -1
    RHS1              R100024                        -1
    RHS1              R100026                        -1
BOUNDS
 BV BND1              C17316
 BV BND1              C17318
 BV BND1              C17320
 BV BND1              C17328
 BV BND1              C17322
 BV BND1              C17324
 BV BND1              C17326
 BV BND1              C17330
 BV BND1              C17332
 BV BND1              C17334
 BV BND1              C17336
 BV BND1              C17338
 BV BND1              C17317
 BV BND1              C17315
 BV BND1              C17327
 BV BND1              C17319
 BV BND1              C17333
 BV BND1              C17321
ENDATA
