NAME          ns1830653_ds
OBJSENSE
 MIN
ROWS
 N  OBJ
 E  R0880
 E  R0898
 G  R1399
 G  R1400
 G  R1401
 G  R1402
 G  R1414
 G  R1415
 G  R1416
 G  R1417
 G  R1534
 G  R1535
 G  R1536
 G  R1537
 G  R1549
 G  R1550
 G  R1551
 G  R1552
 G  R1668
 G  R1669
 G  R1670
 G  R1671
 G  R1672
 G  R1682
 G  R1683
 G  R1684
 G  R1685
 G  R1686
 G  R1794
 G  R1795
 G  R1796
 G  R1797
 G  R1798
 G  R1808
 G  R1809
 G  R1810
 G  R1811
 G  R1812
 G  R2209
 G  R2210
COLUMNS
    MARK0000  'MARKER'                 'INTORG'
    C0180            OBJ                           153 R0880                           1
    C0180            R0898                           1 R1399                          -1
    C0180            R1400                          -1 R1401                          -1
    C0180            R1402                          -1 R1414                           1
    C0180            R1415                           1 R1416                           1
    C0180            R1417                           1 R1534                          -1
    C0180            R1535                          -1 R1536                          -1
    C0180            R1537                          -1 R1549                           1
    C0180            R1550                           1 R1551                           1
    C0180            R1552                           1 R1668                          -1
    C0180            R1669                          -1 R1670                          -1
    C0180            R1671                          -1 R1672                          -1
    C0180            R1682                           2 R1683                           2
    C0180            R1684                           2 R1685                           2
    C0180            R1686                           2 R1794                           2
    C0180            R1795                           2 R1796                           2
    C0180            R1797                           2 R1798                           2
    C0180            R1808                          -1 R1809                          -1
    C0180            R1810                          -1 R1811                          -1
    C0180            R1812                          -1 R2209                           1
    C0180            R2210                           1
    C0198            OBJ                           127 R0880                           1
    C0198            R1399                          -1 R1400                          -1
    C0198            R1401                          -1 R1402                          -1
    C0198            R1534                          -1 R1535                          -1
    C0198            R1536                          -1 R1537                          -1
    C0198            R1668                          -1 R1669                          -1
    C0198            R1670                          -1 R1671                          -1
    C0198            R1672                          -1 R1794                           2
    C0198            R1795                           2 R1796                           2
    C0198            R1797                           2 R1798                           2
    C0198            R2209                           1 R2210                           1
    C0216            OBJ                            65 R0880                           1
    C0216            R1399                          -1 R1400                          -1
    C0216            R1401                          -1 R1402                          -1
    C0216            R1534                          -1 R1535                          -1
    C0216            R1536                          -1 R1537                          -1
    C0216            R1668                          -1 R1669                          -1
    C0216            R1670                          -1 R1671                          -1
    C0216            R1672                          -1 R1794                           2
    C0216            R1795                           2 R1796                           2
    C0216            R1797                           2 R1798                           2
    C0216            R2209                           1 R2210                           1
    C0234            OBJ                           145 R0880                           1
    C0234            R1399                          -1 R1400                          -1
    C0234            R1401                          -1 R1402                          -1
    C0234            R1534                          -1 R1535                          -1
    C0234            R1536                          -1 R1537                          -1
    C0234            R1668                          -1 R1669                          -1
    C0234            R1670                          -1 R1671                          -1
    C0234            R1672                          -1 R1794                           2
    C0234            R1795                           2 R1796                           2
    C0234            R1797                           2 R1798                           2
    C0234            R2209                           1 R2210                           1
    C0252            OBJ                            69 R0880                           1
    C0252            R1399                          -1 R1400                          -1
    C0252            R1401                          -1 R1402                          -1
    C0252            R1534                          -1 R1535                          -1
    C0252            R1536                          -1 R1537                          -1
    C0252            R1668                          -1 R1669                          -1
    C0252            R1670                          -1 R1671                          -1
    C0252            R1672                          -1 R1794                           2
    C0252            R1795                           2 R1796                           2
    C0252            R1797                           2 R1798                           2
    C0252            R2209                           1 R2210                           1
    C0270            OBJ                           142 R0880                           1
    C0270            R1399                          -1 R1400                          -1
    C0270            R1401                          -1 R1402                          -1
    C0270            R1534                          -1 R1535                          -1
    C0270            R1536                          -1 R1537                          -1
    C0270            R1668                          -1 R1669                          -1
    C0270            R1670                          -1 R1671                          -1
    C0270            R1672                          -1 R1794                           2
    C0270            R1795                           2 R1796                           2
    C0270            R1797                           2 R1798                           2
    C0270            R2209                           1 R2210                           1
    C0288            OBJ                           121 R0880                           1
    C0288            R1399                          -1 R1400                          -1
    C0288            R1401                          -1 R1402                          -1
    C0288            R1534                          -1 R1535                          -1
    C0288            R1536                          -1 R1537                          -1
    C0288            R1668                          -1 R1669                          -1
    C0288            R1670                          -1 R1671                          -1
    C0288            R1672                          -1 R1794                           2
    C0288            R1795                           2 R1796                           2
    C0288            R1797                           2 R1798                           2
    C0288            R2209                           1 R2210                           1
    C0306            OBJ                           224 R0880                           1
    C0306            R1399                          -1 R1400                          -1
    C0306            R1401                          -1 R1402                          -1
    C0306            R1534                          -1 R1535                          -1
    C0306            R1536                          -1 R1537                          -1
    C0306            R1668                          -1 R1669                          -1
    C0306            R1670                          -1 R1671                          -1
    C0306            R1672                          -1 R1794                           2
    C0306            R1795                           2 R1796                           2
    C0306            R1797                           2 R1798                           2
    C0306            R2209                           1 R2210                           1
    C0342            OBJ                           153 R0880                           1
    C0342            R0898                           1 R1399                           1
    C0342            R1400                           1 R1401                           1
    C0342            R1402                           1 R1414                          -1
    C0342            R1415                          -1 R1416                          -1
    C0342            R1417                          -1 R1534                           1
    C0342            R1535                           1 R1536                           1
    C0342            R1537                           1 R1549                          -1
    C0342            R1550                          -1 R1551                          -1
    C0342            R1552                          -1 R1668                           2
    C0342            R1669                           2 R1670                           2
    C0342            R1671                           2 R1672                           2
    C0342            R1682                          -1 R1683                          -1
    C0342            R1684                          -1 R1685                          -1
    C0342            R1686                          -1 R1794                          -1
    C0342            R1795                          -1 R1796                          -1
    C0342            R1797                          -1 R1798                          -1
    C0342            R1808                           2 R1809                           2
    C0342            R1810                           2 R1811                           2
    C0342            R1812                           2 R2209                          -1
    C0342            R2210                          -1
    C0360            OBJ                            58 R0898                           1
    C0360            R1414                          -1 R1415                          -1
    C0360            R1416                          -1 R1417                          -1
    C0360            R1549                          -1 R1550                          -1
    C0360            R1551                          -1 R1552                          -1
    C0360            R1682                          -1 R1683                          -1
    C0360            R1684                          -1 R1685                          -1
    C0360            R1686                          -1 R1808                           2
    C0360            R1809                           2 R1810                           2
    C0360            R1811                           2 R1812                           2
    C0378            OBJ                           210 R0898                           1
    C0378            R1414                          -1 R1415                          -1
    C0378            R1416                          -1 R1417                          -1
    C0378            R1549                          -1 R1550                          -1
    C0378            R1551                          -1 R1552                          -1
    C0378            R1682                          -1 R1683                          -1
    C0378            R1684                          -1 R1685                          -1
    C0378            R1686                          -1 R1808                           2
    C0378            R1809                           2 R1810                           2
    C0378            R1811                           2 R1812                           2
    C0396            OBJ                           221 R0898                           1
    C0396            R1414                          -1 R1415                          -1
    C0396            R1416                          -1 R1417                          -1
    C0396            R1549                          -1 R1550                          -1
    C0396            R1551                          -1 R1552                          -1
    C0396            R1682                          -1 R1683                          -1
    C0396            R1684                          -1 R1685                          -1
    C0396            R1686                          -1 R1808                           2
    C0396            R1809                           2 R1810                           2
    C0396            R1811                           2 R1812                           2
    C0414            OBJ                           129 R0898                           1
    C0414            R1414                          -1 R1415                          -1
    C0414            R1416                          -1 R1417                          -1
    C0414            R1549                          -1 R1550                          -1
    C0414            R1551                          -1 R1552                          -1
    C0414            R1682                          -1 R1683                          -1
    C0414            R1684                          -1 R1685                          -1
    C0414            R1686                          -1 R1808                           2
    C0414            R1809                           2 R1810                           2
    C0414            R1811                           2 R1812                           2
    C0432            OBJ                           148 R0898                           1
    C0432            R1414                          -1 R1415                          -1
    C0432            R1416                          -1 R1417                          -1
    C0432            R1549                          -1 R1550                          -1
    C0432            R1551                          -1 R1552                          -1
    C0432            R1682                          -1 R1683                          -1
    C0432            R1684                          -1 R1685                          -1
    C0432            R1686                          -1 R1808                           2
    C0432            R1809                           2 R1810                           2
    C0432            R1811                           2 R1812                           2
    C0450            OBJ                           264 R0898                           1
    C0450            R1414                          -1 R1415                          -1
    C0450            R1416                          -1 R1417                          -1
    C0450            R1549                          -1 R1550                          -1
    C0450            R1551                          -1 R1552                          -1
    C0450            R1682                          -1 R1683                          -1
    C0450            R1684                          -1 R1685                          -1
    C0450            R1686                          -1 R1808                           2
    C0450            R1809                           2 R1810                           2
    C0450            R1811                           2 R1812                           2
    C0468            OBJ                           224 R0898                           1
    C0468            R1414                          -1 R1415                          -1
    C0468            R1416                          -1 R1417                          -1
    C0468            R1549                          -1 R1550                          -1
    C0468            R1551                          -1 R1552                          -1
    C0468            R1682                          -1 R1683                          -1
    C0468            R1684                          -1 R1685                          -1
    C0468            R1686                          -1 R1808                           2
    C0468            R1809                           2 R1810                           2
    C0468            R1811                           2 R1812                           2
    C0504            OBJ                           127 R0880                           1
    C0504            R1399                           1 R1400                           1
    C0504            R1401                           1 R1402                           1
    C0504            R1534                           1 R1535                           1
    C0504            R1536                           1 R1537                           1
    C0504            R1668                           2 R1669                           2
    C0504            R1670                           2 R1671                           2
    C0504            R1672                           2 R1794                          -1
    C0504            R1795                          -1 R1796                          -1
    C0504            R1797                          -1 R1798                          -1
    C0504            R2209                          -1 R2210                          -1
    C0522            OBJ                            58 R0898                           1
    C0522            R1414                           1 R1415                           1
    C0522            R1416                           1 R1417                           1
    C0522            R1549                           1 R1550                           1
    C0522            R1551                           1 R1552                           1
    C0522            R1682                           2 R1683                           2
    C0522            R1684                           2 R1685                           2
    C0522            R1686                           2 R1808                          -1
    C0522            R1809                          -1 R1810                          -1
    C0522            R1811                          -1 R1812                          -1
    MARK0001  'MARKER'                 'INTEND'
RHS
    RHS1              R0880                           1
    RHS1              R0898                           1
    RHS1              R1399                          -2
    RHS1              R1400                          -2
    RHS1              R1401                          -2
    RHS1              R1402                          -2
    RHS1              R1414                          -2
    RHS1              R1415                          -2
    RHS1              R1416                          -2
    RHS1              R1417                          -2
    RHS1              R1534                          -2
    RHS1              R1535                          -2
    RHS1              R1536                          -2
    RHS1              R1537                          -2
    RHS1              R1549                          -2
    RHS1              R1550                          -2
    RHS1              R1551                          -2
    RHS1              R1552                          -2
    RHS1              R1668                          -2
    RHS1              R1669                          -2
    RHS1              R1670                          -2
    RHS1              R1671                          -2
    RHS1              R1672                          -2
    RHS1              R1682                          -2
    RHS1              R1683                          -2
    RHS1              R1684                          -2
    RHS1              R1685                          -2
    RHS1              R1686                          -2
    RHS1              R1794                          -2
    RHS1              R1795                          -2
    RHS1              R1796                          -2
    RHS1              R1797                          -2
    RHS1              R1798                          -2
    RHS1              R1808                          -2
    RHS1              R1809                          -2
    RHS1              R1810                          -2
    RHS1              R1811                          -2
    RHS1              R1812                          -2
    RHS1              R2209                          -2
    RHS1              R2210                          -2
BOUNDS
 BV BND1              C0180
 BV BND1              C0198
 BV BND1              C0216
 BV BND1              C0234
 BV BND1              C0252
 BV BND1              C0270
 BV BND1              C0288
 BV BND1              C0306
 BV BND1              C0342
 BV BND1              C0360
 BV BND1              C0378
 BV BND1              C0396
 BV BND1              C0414
 BV BND1              C0432
 BV BND1              C0450
 BV BND1              C0468
 BV BND1              C0504
 BV BND1              C0522
ENDATA
