NAME          supportcase6_ds
OBJSENSE
 MIN
ROWS
 N  OBJ
 E  c722
 E  c747
 E  c726
 E  c745
 E  c762
 E  c733
 E  c759
 E  c536
 E  c537
 E  c538
 E  c436
 E  c442
 E  c444
 E  c450
 E  c465
 E  c539
COLUMNS
    MARK0000  'MARKER'                 'INTORG'
    B100137(7)       OBJ                   1.50892e+08 c722                            1
    B100137(7)       c747                            1 c726                            1
    B100137(7)       c745                            1 c759                            1
    B100137(7)       c536                           -1 c436                            1
    B100143(7)       OBJ                   1.34333e+08 c722                            1
    B100143(7)       c747                            1 c726                            1
    B100143(7)       c745                            1 c733                            1
    B100143(7)       c536                           -1 c442                            1
    B100145(7)       OBJ                   1.45944e+08 c722                            1
    B100145(7)       c747                            1 c726                            1
    B100145(7)       c745                            1 c762                            1
    B100145(7)       c536                           -1 c444                            1
    B100151(7)       OBJ                   1.44887e+08 c722                            1
    B100151(7)       c747                            1 c745                            1
    B100151(7)       c762                            1 c733                            1
    B100151(7)       c536                           -1 c450                            1
    B100166(7)       OBJ                   1.51847e+08 c722                            1
    B100166(7)       c747                            1 c726                            1
    B100166(7)       c762                            1 c759                            1
    B100166(7)       c536                           -1 c465                            1
    B100594(7)       OBJ                   1.50892e+08 c722                            1
    B100594(7)       c747                            1 c726                            1
    B100594(7)       c745                            1 c759                            1
    B100594(7)       c537                           -1 c436                            1
    B100600(7)       OBJ                   1.34333e+08 c722                            1
    B100600(7)       c747                            1 c726                            1
    B100600(7)       c745                            1 c733                            1
    B100600(7)       c537                           -1 c442                            1
    B100602(7)       OBJ                   1.45944e+08 c722                            1
    B100602(7)       c747                            1 c726                            1
    B100602(7)       c745                            1 c762                            1
    B100602(7)       c537                           -1 c444                            1
    B100608(7)       OBJ                   1.44887e+08 c722                            1
    B100608(7)       c747                            1 c745                            1
    B100608(7)       c762                            1 c733                            1
    B100608(7)       c537                           -1 c450                            1
    B100623(7)       OBJ                   1.51847e+08 c722                            1
    B100623(7)       c747                            1 c726                            1
    B100623(7)       c762                            1 c759                            1
    B100623(7)       c537                           -1 c465                            1
    B101029(7)       OBJ                   1.50892e+08 c722                            1
    B101029(7)       c747                            1 c726                            1
    B101029(7)       c745                            1 c759                            1
    B101029(7)       c538                           -1 c436                            1
    B101035(7)       OBJ                   1.34333e+08 c722                            1
    B101035(7)       c747                            1 c726                            1
    B101035(7)       c745                            1 c733                            1
    B101035(7)       c538                           -1 c442                            1
    B101037(7)       OBJ                   1.45944e+08 c722                            1
    B101037(7)       c747                            1 c726                            1
    B101037(7)       c745                            1 c762                            1
    B101037(7)       c538                           -1 c444                            1
    B101043(7)       OBJ                   1.44887e+08 c722                            1
    B101043(7)       c747                            1 c745                            1
    B101043(7)       c762                            1 c733                            1
    B101043(7)       c538                           -1 c450                            1
    B101058(7)       OBJ                   1.51847e+08 c722                            1
    B101058(7)       c747                            1 c726                            1
    B101058(7)       c762                            1 c759                            1
    B101058(7)       c538                           -1 c465                            1
    B101479(7)       OBJ                   1.50892e+08 c722                            1
    B101479(7)       c747                            1 c726                            1
    B101479(7)       c745                            1 c759                            1
    B101479(7)       c436                            1 c539                           -1
    B101485(7)       OBJ                   1.34333e+08 c722                            1
    B101485(7)       c747                            1 c726                            1
    B101485(7)       c745                            1 c733                            1
    B101485(7)       c442                            1 c539                           -1
    B101487(7)       OBJ                   1.45944e+08 c722                            1
    B101487(7)       c747                            1 c726                            1
    B101487(7)       c745                            1 c762                            1
    B101487(7)       c444                            1 c539                           -1
    MARK0001  'MARKER'                 'INTEND'
RHS
    RHS1              c722                            1
    RHS1              c747                            1
    RHS1              c726                            1
    RHS1              c745                            1
    RHS1              c762                            1
    RHS1              c733                            1
    RHS1              c759                            1
    RHS1              c536                            0
    RHS1              c537                            0
    RHS1              c538                            0
    RHS1              c436                            0
    RHS1              c442                            0
    RHS1              c444                            0
    RHS1              c450                            0
    RHS1              c465                            0
    RHS1              c539                            0
BOUNDS
 BV BND1              B100137(7)
 BV BND1              B100143(7)
 BV BND1              B100145(7)
 BV BND1              B100151(7)
 BV BND1              B100166(7)
 BV BND1              B100594(7)
 BV BND1              B100600(7)
 BV BND1              B100602(7)
 BV BND1              B100608(7)
 BV BND1              B100623(7)
 BV BND1              B101029(7)
 BV BND1              B101035(7)
 BV BND1              B101037(7)
 BV BND1              B101043(7)
 BV BND1              B101058(7)
 BV BND1              B101479(7)
 BV BND1              B101485(7)
 BV BND1              B101487(7)
ENDATA
