NAME          neos-5195221-niemur_ds
OBJSENSE
 MIN
ROWS
 N  OBJ
 L  R27724
 E  R27851
 E  R27852
 E  R27853
 L  R30245
 L  R30246
 L  R30247
 L  R30248
 L  R30249
 L  R30250
 L  R30251
 L  R30252
 L  R30253
 L  R30254
 L  R30255
 L  R30256
 L  R30257
 L  R30258
 L  R30259
 L  R30260
 L  R30261
 L  R30262
 L  R30263
 L  R30264
 L  R30265
 L  R30266
 L  R30267
 L  R30268
 L  R30269
 L  R30270
 L  R30271
 L  R30272
 L  R30273
 L  R30274
 L  R30275
 L  R30276
 L  R30277
 L  R30278
 L  R30279
 L  R30280
COLUMNS
    MARK0000  'MARKER'                 'INTORG'
    C14296           OBJ                             0 R27724                        -20
    C14296           R27851                          1 R30245                     -66731
    C14296           R30246                     -66731 R30247                     -66731
    C14296           R30248                     -66731 R30249                     -66731
    C14296           R30250                     -66731 R30251                     -66731
    C14296           R30252                     -66731 R30253                     -66731
    C14296           R30254                     -66731 R30255                     -66731
    C14296           R30256                     -66731 R30257                     -66731
    C14296           R30258                     -66731 R30259                     -66731
    C14296           R30260                     -66731 R30261                     -66731
    C14296           R30262                     -66731 R30263                     -66731
    C14296           R30264                     -66731 R30265                     -66731
    C14296           R30266                     -66731 R30267                     -66731
    C14296           R30268                     -66731 R30269                     -66731
    C14296           R30270                     -66731 R30271                     -66731
    C14296           R30272                     -66731 R30273                     -66731
    C14296           R30274                     -66731 R30275                     -66731
    C14296           R30276                     -66731 R30277                     -66731
    C14296           R30278                     -66731 R30279                     -66731
    C14296           R30280                     -66731
    C14297           OBJ                             0 R27724                         20
    C14297           R27851                          1 R30245                     -22244
    C14297           R30246                     -22244 R30247                     -22244
    C14297           R30248                     -22244 R30249                     -22244
    C14297           R30250                     -22244 R30251                     -22244
    C14297           R30252                     -22244 R30253                     -22244
    C14297           R30254                     -22244 R30255                     -22244
    C14297           R30256                     -22244 R30257                     -22244
    C14297           R30258                     -22244 R30259                     -22244
    C14297           R30260                     -22244 R30261                     -22244
    C14297           R30262                     -22244 R30263                     -22244
    C14297           R30264                     -22244 R30265                     -22244
    C14297           R30266                     -22244 R30267                     -22244
    C14297           R30268                     -22244 R30269                     -22244
    C14297           R30270                     -22244 R30271                     -22244
    C14297           R30272                     -22244 R30273                     -22244
    C14297           R30274                     -22244 R30275                     -22244
    C14297           R30276                     -22244 R30277                     -22244
    C14297           R30278                     -22244 R30279                     -22244
    C14297           R30280                     -22244
    C14298           OBJ                             0 R27724                         43
    C14298           R27851                          1 R30245                     -11122
    C14298           R30246                     -11122 R30247                     -11122
    C14298           R30248                     -11122 R30249                     -11122
    C14298           R30250                     -11122 R30251                     -11122
    C14298           R30252                     -11122 R30253                     -11122
    C14298           R30254                     -11122 R30255                     -11122
    C14298           R30256                     -11122 R30257                     -11122
    C14298           R30258                     -11122 R30259                     -11122
    C14298           R30260                     -11122 R30261                     -11122
    C14298           R30262                     -11122 R30263                     -11122
    C14298           R30264                     -11122 R30265                     -11122
    C14298           R30266                     -11122 R30267                     -11122
    C14298           R30268                     -11122 R30269                     -11122
    C14298           R30270                     -11122 R30271                     -11122
    C14298           R30272                     -11122 R30273                     -11122
    C14298           R30274                     -11122 R30275                     -11122
    C14298           R30276                     -11122 R30277                     -11122
    C14298           R30278                     -11122 R30279                     -11122
    C14298           R30280                     -11122
    C14299           OBJ                             0 R27724                         59
    C14299           R27851                          1 R30245                      -5561
    C14299           R30246                      -5561 R30247                      -5561
    C14299           R30248                      -5561 R30249                      -5561
    C14299           R30250                      -5561 R30251                      -5561
    C14299           R30252                      -5561 R30253                      -5561
    C14299           R30254                      -5561 R30255                      -5561
    C14299           R30256                      -5561 R30257                      -5561
    C14299           R30258                      -5561 R30259                      -5561
    C14299           R30260                      -5561 R30261                      -5561
    C14299           R30262                      -5561 R30263                      -5561
    C14299           R30264                      -5561 R30265                      -5561
    C14299           R30266                      -5561 R30267                      -5561
    C14299           R30268                      -5561 R30269                      -5561
    C14299           R30270                      -5561 R30271                      -5561
    C14299           R30272                      -5561 R30273                      -5561
    C14299           R30274                      -5561 R30275                      -5561
    C14299           R30276                      -5561 R30277                      -5561
    C14299           R30278                      -5561 R30279                      -5561
    C14299           R30280                      -5561
    C14300           OBJ                             0 R27724                         67
    C14300           R27851                          1 R30245                      -2780
    C14300           R30246                      -2780 R30247                      -2780
    C14300           R30248                      -2780 R30249                      -2780
    C14300           R30250                      -2780 R30251                      -2780
    C14300           R30252                      -2780 R30253                      -2780
    C14300           R30254                      -2780 R30255                      -2780
    C14300           R30256                      -2780 R30257                      -2780
    C14300           R30258                      -2780 R30259                      -2780
    C14300           R30260                      -2780 R30261                      -2780
    C14300           R30262                      -2780 R30263                      -2780
    C14300           R30264                      -2780 R30265                      -2780
    C14300           R30266                      -2780 R30267                      -2780
    C14300           R30268                      -2780 R30269                      -2780
    C14300           R30270                      -2780 R30271                      -2780
    C14300           R30272                      -2780 R30273                      -2780
    C14300           R30274                      -2780 R30275                      -2780
    C14300           R30276                      -2780 R30277                      -2780
    C14300           R30278                      -2780 R30279                      -2780
    C14300           R30280                      -2780
    C14301           OBJ                             0 R27724                         72
    C14301           R27851                          1 R30245                      -1390
    C14301           R30246                      -1390 R30247                      -1390
    C14301           R30248                      -1390 R30249                      -1390
    C14301           R30250                      -1390 R30251                      -1390
    C14301           R30252                      -1390 R30253                      -1390
    C14301           R30254                      -1390 R30255                      -1390
    C14301           R30256                      -1390 R30257                      -1390
    C14301           R30258                      -1390 R30259                      -1390
    C14301           R30260                      -1390 R30261                      -1390
    C14301           R30262                      -1390 R30263                      -1390
    C14301           R30264                      -1390 R30265                      -1390
    C14301           R30266                      -1390 R30267                      -1390
    C14301           R30268                      -1390 R30269                      -1390
    C14301           R30270                      -1390 R30271                      -1390
    C14301           R30272                      -1390 R30273                      -1390
    C14301           R30274                      -1390 R30275                      -1390
    C14301           R30276                      -1390 R30277                      -1390
    C14301           R30278                      -1390 R30279                      -1390
    C14301           R30280                      -1390
    C14303           OBJ                             0 R27724                         -3
    C14303           R27852                          1
    C14304           OBJ                             0 R27724                          3
    C14304           R27852                          1
    C14305           OBJ                             0 R27724                          6
    C14305           R27852                          1
    C14306           OBJ                             0 R27724                          8
    C14306           R27852                          1
    C14307           OBJ                             0 R27724                          9
    C14307           R27852                          1
    C14308           OBJ                             0 R27724                          9
    C14308           R27852                          1
    C14310           OBJ                             0 R27724                        -27
    C14310           R27853                          1
    C14311           OBJ                             0 R27724                         27
    C14311           R27853                          1
    C14312           OBJ                             0 R27724                         60
    C14312           R27853                          1
    C14313           OBJ                             0 R27724                         82
    C14313           R27853                          1
    C14314           OBJ                             0 R27724                         94
    C14314           R27853                          1
    C14315           OBJ                             0 R27724                        100
    C14315           R27853                          1
    MARK0001  'MARKER'                 'INTEND'
RHS
    RHS1              R27724                        221
    RHS1              R27851                          1
    RHS1              R27852                          1
    RHS1              R27853                          1
    RHS1              R30245                          0
    RHS1              R30246                          0
    RHS1              R30247                          0
    RHS1              R30248                          0
    RHS1              R30249                          0
    RHS1              R30250                          0
    RHS1              R30251                          0
    RHS1              R30252                          0
    RHS1              R30253                          0
    RHS1              R30254                          0
    RHS1              R30255                          0
    RHS1              R30256                          0
    RHS1              R30257                          0
    RHS1              R30258                          0
    RHS1              R30259                          0
    RHS1              R30260                          0
    RHS1              R30261                          0
    RHS1              R30262                          0
    RHS1              R30263                          0
    RHS1              R30264                          0
    RHS1              R30265                          0
    RHS1              R30266                          0
    RHS1              R30267                          0
    RHS1              R30268                          0
    RHS1              R30269                          0
    RHS1              R30270                          0
    RHS1              R30271                          0
    RHS1              R30272                          0
    RHS1              R30273                          0
    RHS1              R30274                          0
    RHS1              R30275                          0
    RHS1              R30276                          0
    RHS1              R30277                          0
    RHS1              R30278                          0
    RHS1              R30279                          0
    RHS1              R30280                          0
BOUNDS
 BV BND1              C14296
 BV BND1              C14297
 BV BND1              C14298
 BV BND1              C14299
 BV BND1              C14300
 BV BND1              C14301
 BV BND1              C14303
 BV BND1              C14304
 BV BND1              C14305
 BV BND1              C14306
 BV BND1              C14307
 BV BND1              C14308
 BV BND1              C14310
 BV BND1              C14311
 BV BND1              C14312
 BV BND1              C14313
 BV BND1              C14314
 BV BND1              C14315
ENDATA
