NAME          neos-3216931-puriri_ds
OBJSENSE
 MIN
ROWS
 N  OBJ
 L  R0002
 E  R5313
 L  R5329
 E  R5696
 E  R5712
 E  R5728
 E  R5744
 E  R5880
 L  R5896
 L  R5897
 L  R5898
 L  R5899
 L  R5900
 L  R5901
 L  R5902
 L  R5903
 L  R5904
 L  R5905
 L  R5906
 L  R5907
 L  R5908
 L  R5909
 L  R5910
 L  R5944
 L  R0311
 L  R0326
 L  R0341
 L  R0356
 L  R0371
 L  R0386
 L  R0491
 L  R0506
 L  R0521
 L  R0536
 L  R0551
 L  R0566
 L  R0581
 L  R0596
 L  R0611
 L  R0626
COLUMNS
    MARK0000  'MARKER'                 'INTORG'
    C0303            OBJ                         10000 R0002                           1
    C0303            R5313                          -1 R5329                          -1
    C0303            R5696                           3 R5712                           3
    C0303            R5728                           3 R5744                           3
    C0303            R5880                           1 R5896                           1
    C0303            R5897                           1 R5898                           1
    C0303            R5899                           1 R5900                           1
    C0303            R5901                           1 R5902                           1
    C0303            R5903                           1 R5904                           1
    C0303            R5905                           1 R5906                           1
    C0303            R5907                           1 R5908                           1
    C0303            R5909                           1 R5910                           1
    C0303            R5944                          -2 R0311                           1
    C0303            R0326                           1 R0341                           1
    C0303            R0356                           1 R0371                           1
    C0303            R0386                           1
    C0334            OBJ                         10000 R0002                           1
    C0334            R5313                          -1 R5329                          -1
    C0334            R5696                           3 R5712                           3
    C0334            R5728                           3 R5744                           3
    C0334            R5880                           1 R5896                           1
    C0334            R5897                           1 R5898                           1
    C0334            R5899                           1 R5900                           1
    C0334            R5901                           1 R5902                           1
    C0334            R5903                           1 R5904                           1
    C0334            R5905                           1 R5906                           1
    C0334            R5907                           1 R5908                           1
    C0334            R5909                           1 R5910                           1
    C0334            R5944                          -2 R0311                           1
    C0334            R0326                           1 R0341                           1
    C0334            R0356                           1 R0371                           1
    C0334            R0386                           1
    C0366            OBJ                         10000 R0002                           1
    C0366            R5313                          -1 R5329                          -1
    C0366            R5696                           3 R5712                           3
    C0366            R5728                           3 R5744                           3
    C0366            R5880                           1 R5896                           1
    C0366            R5897                           1 R5898                           1
    C0366            R5899                           1 R5900                           1
    C0366            R5901                           1 R5902                           1
    C0366            R5903                           1 R5904                           1
    C0366            R5905                           1 R5906                           1
    C0366            R5907                           1 R5908                           1
    C0366            R5909                           1 R5910                           1
    C0366            R5944                          -2 R0311                           1
    C0366            R0326                           1 R0341                           1
    C0366            R0356                           1 R0371                           1
    C0366            R0386                           1
    C0398            OBJ                         10000 R0002                           1
    C0398            R5313                          -1 R5329                          -1
    C0398            R5696                           3 R5712                           3
    C0398            R5728                           3 R5744                           3
    C0398            R5880                           1 R5896                           1
    C0398            R5897                           1 R5898                           1
    C0398            R5899                           1 R5900                           1
    C0398            R5901                           1 R5902                           1
    C0398            R5903                           1 R5904                           1
    C0398            R5905                           1 R5906                           1
    C0398            R5907                           1 R5908                           1
    C0398            R5909                           1 R5910                           1
    C0398            R5944                          -2 R0311                           1
    C0398            R0326                           1 R0341                           1
    C0398            R0356                           1 R0371                           1
    C0398            R0386                           1
    C0430            OBJ                         10000 R0002                           1
    C0430            R5313                          -1 R5329                          -1
    C0430            R5696                           3 R5712                           3
    C0430            R5728                           3 R5744                           3
    C0430            R5880                           1 R5896                           1
    C0430            R5897                           1 R5898                           1
    C0430            R5899                           1 R5900                           1
    C0430            R5901                           1 R5902                           1
    C0430            R5903                           1 R5904                           1
    C0430            R5905                           1 R5906                           1
    C0430            R5907                           1 R5908                           1
    C0430            R5909                           1 R5910                           1
    C0430            R5944                          -2 R0311                           1
    C0430            R0326                           1 R0341                           1
    C0430            R0356                           1 R0371                           1
    C0430            R0386                           1
    C0462            OBJ                         10000 R0002                           1
    C0462            R5313                          -1 R5329                          -1
    C0462            R5696                           3 R5712                           3
    C0462            R5728                           3 R5744                           3
    C0462            R5880                           1 R5896                           1
    C0462            R5897                           1 R5898                           1
    C0462            R5899                           1 R5900                           1
    C0462            R5901                           1 R5902                           1
    C0462            R5903                           1 R5904                           1
    C0462            R5905                           1 R5906                           1
    C0462            R5907                           1 R5908                           1
    C0462            R5909                           1 R5910                           1
    C0462            R5944                          -2 R0311                           1
    C0462            R0326                           1 R0341                           1
    C0462            R0356                           1 R0371                           1
    C0462            R0386                           1
    C0672            OBJ                         10000 R0002                           1
    C0672            R5313                          -1 R5329                          -1
    C0672            R5696                           3 R5712                           3
    C0672            R5728                           3 R5744                           3
    C0672            R5880                           1 R5896                           1
    C0672            R5897                           1 R5898                           1
    C0672            R5899                           1 R5900                           1
    C0672            R5901                           1 R5902                           1
    C0672            R5903                           1 R5904                           1
    C0672            R5905                           1 R5906                           1
    C0672            R5907                           1 R5908                           1
    C0672            R5909                           1 R5910                           1
    C0672            R5944                          -2 R0491                           1
    C0672            R0506                           1 R0521                           1
    C0672            R0536                           1 R0551                           1
    C0672            R0566                           1
    C0703            OBJ                         10000 R0002                           1
    C0703            R5313                          -1 R5329                          -1
    C0703            R5696                           3 R5712                           3
    C0703            R5728                           3 R5744                           3
    C0703            R5880                           1 R5896                           1
    C0703            R5897                           1 R5898                           1
    C0703            R5899                           1 R5900                           1
    C0703            R5901                           1 R5902                           1
    C0703            R5903                           1 R5904                           1
    C0703            R5905                           1 R5906                           1
    C0703            R5907                           1 R5908                           1
    C0703            R5909                           1 R5910                           1
    C0703            R5944                          -2 R0491                           1
    C0703            R0506                           1 R0521                           1
    C0703            R0536                           1 R0551                           1
    C0703            R0566                           1
    C0735            OBJ                         10000 R0002                           1
    C0735            R5313                          -1 R5329                          -1
    C0735            R5696                           3 R5712                           3
    C0735            R5728                           3 R5744                           3
    C0735            R5880                           1 R5896                           1
    C0735            R5897                           1 R5898                           1
    C0735            R5899                           1 R5900                           1
    C0735            R5901                           1 R5902                           1
    C0735            R5903                           1 R5904                           1
    C0735            R5905                           1 R5906                           1
    C0735            R5907                           1 R5908                           1
    C0735            R5909                           1 R5910                           1
    C0735            R5944                          -2 R0491                           1
    C0735            R0506                           1 R0521                           1
    C0735            R0536                           1 R0551                           1
    C0735            R0566                           1
    C0767            OBJ                         10000 R0002                           1
    C0767            R5313                          -1 R5329                          -1
    C0767            R5696                           3 R5712                           3
    C0767            R5728                           3 R5744                           3
    C0767            R5880                           1 R5896                           1
    C0767            R5897                           1 R5898                           1
    C0767            R5899                           1 R5900                           1
    C0767            R5901                           1 R5902                           1
    C0767            R5903                           1 R5904                           1
    C0767            R5905                           1 R5906                           1
    C0767            R5907                           1 R5908                           1
    C0767            R5909                           1 R5910                           1
    C0767            R5944                          -2 R0491                           1
    C0767            R0506                           1 R0521                           1
    C0767            R0536                           1 R0551                           1
    C0767            R0566                           1
    C0799            OBJ                         10000 R0002                           1
    C0799            R5313                          -1 R5329                          -1
    C0799            R5696                           3 R5712                           3
    C0799            R5728                           3 R5744                           3
    C0799            R5880                           1 R5896                           1
    C0799            R5897                           1 R5898                           1
    C0799            R5899                           1 R5900                           1
    C0799            R5901                           1 R5902                           1
    C0799            R5903                           1 R5904                           1
    C0799            R5905                           1 R5906                           1
    C0799            R5907                           1 R5908                           1
    C0799            R5909                           1 R5910                           1
    C0799            R5944                          -2 R0491                           1
    C0799            R0506                           1 R0521                           1
    C0799            R0536                           1 R0551                           1
    C0799            R0566                           1
    C0829            OBJ                         10000 R0002                           1
    C0829            R5313                          -1 R5329                          -1
    C0829            R5696                           3 R5712                           3
    C0829            R5728                           3 R5744                           3
    C0829            R5880                           1 R5896                           1
    C0829            R5897                           1 R5898                           1
    C0829            R5899                           1 R5900                           1
    C0829            R5901                           1 R5902                           1
    C0829            R5903                           1 R5904                           1
    C0829            R5905                           1 R5906                           1
    C0829            R5907                           1 R5908                           1
    C0829            R5909                           1 R5910                           1
    C0829            R5944                          -2 R0491                           1
    C0829            R0506                           1 R0521                           1
    C0829            R0536                           1 R0551                           1
    C0829            R0566                           1
    C0861            OBJ                         10000 R0002                           1
    C0861            R5313                          -1 R5329                          -1
    C0861            R5696                           3 R5712                           3
    C0861            R5728                           3 R5744                           3
    C0861            R5880                           1 R5896                           1
    C0861            R5897                           1 R5898                           1
    C0861            R5899                           1 R5900                           1
    C0861            R5901                           1 R5902                           1
    C0861            R5903                           1 R5904                           1
    C0861            R5905                           1 R5906                           1
    C0861            R5907                           1 R5908                           1
    C0861            R5909                           1 R5910                           1
    C0861            R5944                          -2 R0581                           1
    C0861            R0596                           1 R0611                           1
    C0861            R0626                           1
    C0892            OBJ                         10000 R0002                           1
    C0892            R5313                          -1 R5329                          -1
    C0892            R5696                           3 R5712                           3
    C0892            R5728                           3 R5744                           3
    C0892            R5880                           1 R5896                           1
    C0892            R5897                           1 R5898                           1
    C0892            R5899                           1 R5900                           1
    C0892            R5901                           1 R5902                           1
    C0892            R5903                           1 R5904                           1
    C0892            R5905                           1 R5906                           1
    C0892            R5907                           1 R5908                           1
    C0892            R5909                           1 R5910                           1
    C0892            R5944                          -2 R0581                           1
    C0892            R0596                           1 R0611                           1
    C0892            R0626                           1
    C0924            OBJ                         10000 R0002                           1
    C0924            R5313                          -1 R5329                          -1
    C0924            R5696                           3 R5712                           3
    C0924            R5728                           3 R5744                           3
    C0924            R5880                           1 R5896                           1
    C0924            R5897                           1 R5898                           1
    C0924            R5899                           1 R5900                           1
    C0924            R5901                           1 R5902                           1
    C0924            R5903                           1 R5904                           1
    C0924            R5905                           1 R5906                           1
    C0924            R5907                           1 R5908                           1
    C0924            R5909                           1 R5910                           1
    C0924            R5944                          -2 R0581                           1
    C0924            R0596                           1 R0611                           1
    C0924            R0626                           1
    C0956            OBJ                         10000 R0002                           1
    C0956            R5313                          -1 R5329                          -1
    C0956            R5696                           3 R5712                           3
    C0956            R5728                           3 R5744                           3
    C0956            R5880                           1 R5896                           1
    C0956            R5897                           1 R5898                           1
    C0956            R5899                           1 R5900                           1
    C0956            R5901                           1 R5902                           1
    C0956            R5903                           1 R5904                           1
    C0956            R5905                           1 R5906                           1
    C0956            R5907                           1 R5908                           1
    C0956            R5909                           1 R5910                           1
    C0956            R5944                          -2 R0581                           1
    C0956            R0596                           1 R0611                           1
    C0956            R0626                           1
    C0986            OBJ                         10000 R0002                           1
    C0986            R5313                          -1 R5329                          -1
    C0986            R5696                           3 R5712                           3
    C0986            R5728                           3 R5744                           3
    C0986            R5880                           1 R5896                           1
    C0986            R5897                           1 R5898                           1
    C0986            R5899                           1 R5900                           1
    C0986            R5901                           1 R5902                           1
    C0986            R5903                           1 R5904                           1
    C0986            R5905                           1 R5906                           1
    C0986            R5907                           1 R5908                           1
    C0986            R5909                           1 R5910                           1
    C0986            R5944                          -2 R0581                           1
    C0986            R0596                           1 R0611                           1
    C0986            R0626                           1
    C1018            OBJ                         10000 R0002                           1
    C1018            R5313                          -1 R5329                          -1
    C1018            R5696                           3 R5712                           3
    C1018            R5728                           3 R5744                           3
    C1018            R5880                           1 R5896                           1
    C1018            R5897                           1 R5898                           1
    C1018            R5899                           1 R5900                           1
    C1018            R5901                           1 R5902                           1
    C1018            R5903                           1 R5904                           1
    C1018            R5905                           1 R5906                           1
    C1018            R5907                           1 R5908                           1
    C1018            R5909                           1 R5910                           1
    C1018            R5944                          -2 R0581                           1
    C1018            R0596                           1 R0611                           1
    C1018            R0626                           1
    MARK0001  'MARKER'                 'INTEND'
RHS
    RHS1              R0002                           1
    RHS1              R5313                           0
    RHS1              R5329                           0
    RHS1              R5696                           0
    RHS1              R5712                           0
    RHS1              R5728                           0
    RHS1              R5744                           0
    RHS1              R5880                           0
    RHS1              R5896                           2
    RHS1              R5897                           3
    RHS1              R5898                           4
    RHS1              R5899                           5
    RHS1              R5900                           6
    RHS1              R5901                           7
    RHS1              R5902                           8
    RHS1              R5903                           9
    RHS1              R5904                          10
    RHS1              R5905                          11
    RHS1              R5906                          12
    RHS1              R5907                          13
    RHS1              R5908                          14
    RHS1              R5909                          15
    RHS1              R5910                          16
    RHS1              R5944                           0
    RHS1              R0311                           2
    RHS1              R0326                           2
    RHS1              R0341                           2
    RHS1              R0356                           2
    RHS1              R0371                           2
    RHS1              R0386                           2
    RHS1              R0491                           2
    RHS1              R0506                           2
    RHS1              R0521                           2
    RHS1              R0536                           2
    RHS1              R0551                           2
    RHS1              R0566                           2
    RHS1              R0581                           2
    RHS1              R0596                           2
    RHS1              R0611                           2
    RHS1              R0626                           2
BOUNDS
 BV BND1              C0303
 BV BND1              C0334
 BV BND1              C0366
 BV BND1              C0398
 BV BND1              C0430
 BV BND1              C0462
 BV BND1              C0672
 BV BND1              C0703
 BV BND1              C0735
 BV BND1              C0767
 BV BND1              C0799
 BV BND1              C0829
 BV BND1              C0861
 BV BND1              C0892
 BV BND1              C0924
 BV BND1              C0956
 BV BND1              C0986
 BV BND1              C1018
ENDATA
