NAME          neos-827175_ds
OBJSENSE
 MIN
ROWS
 N  OBJ
 L  R0001
 L  R0002
 L  R0003
 L  R0004
 L  R0005
 L  R0006
 L  R0007
 L  R0008
 L  R0009
 L  R0010
 L  R0011
 L  R0012
 L  R0013
 L  R0014
 L  R0015
 L  R10438
 L  R10439
 L  R10440
 L  R10441
 L  R10442
 L  R10443
 L  R10444
 L  R10445
 L  R10446
 L  R10447
 L  R10448
 L  R10449
 L  R10450
 L  R10451
 L  R10452
 L  R10453
 L  R10454
 L  R10455
 L  R10456
 L  R10457
 L  R10458
 L  R10459
 L  R10460
 L  R10461
 L  R10462
COLUMNS
    MARK0000  'MARKER'                 'INTORG'
    C22135           OBJ                             1 R0001                          -1
    C22135           R0002                          -1 R0003                          -1
    C22135           R0004                          -1 R0005                          -1
    C22135           R0006                          -1 R0007                          -1
    C22135           R0008                          -1 R0009                          -1
    C22135           R0010                          -1 R0011                          -1
    C22135           R0012                          -1 R0013                          -1
    C22135           R0014                          -1 R0015                          -1
    C22135           R10438                      -1000 R10439                      -1000
    C22135           R10440                      -1000 R10441                      -1000
    C22135           R10442                      -1000 R10443                      -1000
    C22135           R10444                      -1000 R10445                      -1000
    C22135           R10446                      -1000 R10447                      -1000
    C22135           R10448                      -1000 R10449                      -1000
    C22135           R10450                      -1000 R10451                      -1000
    C22135           R10452                      -1000
    C22136           OBJ                             1 R0001                          -1
    C22136           R0002                          -1 R0003                          -1
    C22136           R0004                          -1 R0005                          -1
    C22136           R0006                          -1 R0007                          -1
    C22136           R0008                          -1 R0009                          -1
    C22136           R0010                          -1 R0011                          -1
    C22136           R0012                          -1 R0013                          -1
    C22136           R0014                          -1 R0015                          -1
    C22136           R10453                      -1000 R10454                      -1000
    C22136           R10455                      -1000 R10456                      -1000
    C22136           R10457                      -1000 R10458                      -1000
    C22136           R10459                      -1000 R10460                      -1000
    C22136           R10461                      -1000 R10462                      -1000
    C22137           OBJ                             1 R0001                          -1
    C22137           R0002                          -1 R0003                          -1
    C22137           R0004                          -1 R0005                          -1
    C22137           R0006                          -1 R0007                          -1
    C22137           R0008                          -1 R0009                          -1
    C22137           R0010                          -1 R0011                          -1
    C22137           R0012                          -1 R0013                          -1
    C22137           R0014                          -1 R0015                          -1
    C22138           OBJ                             1 R0001                          -1
    C22138           R0002                          -1 R0003                          -1
    C22138           R0004                          -1 R0005                          -1
    C22138           R0006                          -1 R0007                          -1
    C22138           R0008                          -1 R0009                          -1
    C22138           R0010                          -1 R0011                          -1
    C22138           R0012                          -1 R0013                          -1
    C22138           R0014                          -1 R0015                          -1
    C22139           OBJ                             1 R0001                          -1
    C22139           R0002                          -1 R0003                          -1
    C22139           R0004                          -1 R0005                          -1
    C22139           R0006                          -1 R0007                          -1
    C22139           R0008                          -1 R0009                          -1
    C22139           R0010                          -1 R0011                          -1
    C22139           R0012                          -1 R0013                          -1
    C22139           R0014                          -1 R0015                          -1
    C22140           OBJ                             1 R0001                          -1
    C22140           R0002                          -1 R0003                          -1
    C22140           R0004                          -1 R0005                          -1
    C22140           R0006                          -1 R0007                          -1
    C22140           R0008                          -1 R0009                          -1
    C22140           R0010                          -1 R0011                          -1
    C22140           R0012                          -1 R0013                          -1
    C22140           R0014                          -1 R0015                          -1
    C22141           OBJ                             1 R0001                          -1
    C22141           R0002                          -1 R0003                          -1
    C22141           R0004                          -1 R0005                          -1
    C22141           R0006                          -1 R0007                          -1
    C22141           R0008                          -1 R0009                          -1
    C22141           R0010                          -1 R0011                          -1
    C22141           R0012                          -1 R0013                          -1
    C22141           R0014                          -1 R0015                          -1
    C22142           OBJ                             1 R0001                          -1
    C22142           R0002                          -1 R0003                          -1
    C22142           R0004                          -1 R0005                          -1
    C22142           R0006                          -1 R0007                          -1
    C22142           R0008                          -1 R0009                          -1
    C22142           R0010                          -1 R0011                          -1
    C22142           R0012                          -1 R0013                          -1
    C22142           R0014                          -1 R0015                          -1
    C22143           OBJ                             1 R0001                          -1
    C22143           R0002                          -1 R0003                          -1
    C22143           R0004                          -1 R0005                          -1
    C22143           R0006                          -1 R0007                          -1
    C22143           R0008                          -1 R0009                          -1
    C22143           R0010                          -1 R0011                          -1
    C22143           R0012                          -1 R0013                          -1
    C22143           R0014                          -1 R0015                          -1
    C22144           OBJ                             1 R0001                          -1
    C22144           R0002                          -1 R0003                          -1
    C22144           R0004                          -1 R0005                          -1
    C22144           R0006                          -1 R0007                          -1
    C22144           R0008                          -1 R0009                          -1
    C22144           R0010                          -1 R0011                          -1
    C22144           R0012                          -1 R0013                          -1
    C22144           R0014                          -1 R0015                          -1
    C22145           OBJ                             1 R0001                          -1
    C22145           R0002                          -1 R0003                          -1
    C22145           R0004                          -1 R0005                          -1
    C22145           R0006                          -1 R0007                          -1
    C22145           R0008                          -1 R0009                          -1
    C22145           R0010                          -1 R0011                          -1
    C22145           R0012                          -1 R0013                          -1
    C22145           R0014                          -1 R0015                          -1
    C22146           OBJ                             1 R0001                          -1
    C22146           R0002                          -1 R0003                          -1
    C22146           R0004                          -1 R0005                          -1
    C22146           R0006                          -1 R0007                          -1
    C22146           R0008                          -1 R0009                          -1
    C22146           R0010                          -1 R0011                          -1
    C22146           R0012                          -1 R0013                          -1
    C22146           R0014                          -1 R0015                          -1
    C22147           OBJ                             1 R0001                          -1
    C22147           R0002                          -1 R0003                          -1
    C22147           R0004                          -1 R0005                          -1
    C22147           R0006                          -1 R0007                          -1
    C22147           R0008                          -1 R0009                          -1
    C22147           R0010                          -1 R0011                          -1
    C22147           R0012                          -1 R0013                          -1
    C22147           R0014                          -1 R0015                          -1
    C22148           OBJ                             1 R0001                          -1
    C22148           R0002                          -1 R0003                          -1
    C22148           R0004                          -1 R0005                          -1
    C22148           R0006                          -1 R0007                          -1
    C22148           R0008                          -1 R0009                          -1
    C22148           R0010                          -1 R0011                          -1
    C22148           R0012                          -1 R0013                          -1
    C22148           R0014                          -1 R0015                          -1
    C22149           OBJ                             1 R0001                          -1
    C22149           R0002                          -1 R0003                          -1
    C22149           R0004                          -1 R0005                          -1
    C22149           R0006                          -1 R0007                          -1
    C22149           R0008                          -1 R0009                          -1
    C22149           R0010                          -1 R0011                          -1
    C22149           R0012                          -1 R0013                          -1
    C22149           R0014                          -1 R0015                          -1
    C22150           OBJ                             1 R0001                          -1
    C22150           R0002                          -1 R0003                          -1
    C22150           R0004                          -1 R0005                          -1
    C22150           R0006                          -1 R0007                          -1
    C22150           R0008                          -1 R0009                          -1
    C22150           R0010                          -1 R0011                          -1
    C22150           R0012                          -1 R0013                          -1
    C22150           R0014                          -1 R0015                          -1
    C22151           OBJ                             1 R0001                          -1
    C22151           R0002                          -1 R0003                          -1
    C22151           R0004                          -1 R0005                          -1
    C22151           R0006                          -1 R0007                          -1
    C22151           R0008                          -1 R0009                          -1
    C22151           R0010                          -1 R0011                          -1
    C22151           R0012                          -1 R0013                          -1
    C22151           R0014                          -1 R0015                          -1
    C22152           OBJ                             1 R0001                          -1
    C22152           R0002                          -1 R0003                          -1
    C22152           R0004                          -1 R0005                          -1
    C22152           R0006                          -1 R0007                          -1
    C22152           R0008                          -1 R0009                          -1
    C22152           R0010                          -1 R0011                          -1
    C22152           R0012                          -1 R0013                          -1
    C22152           R0014                          -1 R0015                          -1
    MARK0001  'MARKER'                 'INTEND'
RHS
    RHS1              R0001                         -13
    RHS1              R0002                         -14
    RHS1              R0003                         -13
    RHS1              R0004                         -27
    RHS1              R0005                         -13
    RHS1              R0006                         -22
    RHS1              R0007                         -13
    RHS1              R0008                         -13
    RHS1              R0009                         -17
    RHS1              R0010                         -24
    RHS1              R0011                        -110
    RHS1              R0012                         -11
    RHS1              R0013                         -16
    RHS1              R0014                         -25
    RHS1              R0015                         -13
    RHS1              R10438                          0
    RHS1              R10439                          0
    RHS1              R10440                          0
    RHS1              R10441                          0
    RHS1              R10442                          0
    RHS1              R10443                          0
    RHS1              R10444                          0
    RHS1              R10445                          0
    RHS1              R10446                          0
    RHS1              R10447                          0
    RHS1              R10448                          0
    RHS1              R10449                          0
    RHS1              R10450                          0
    RHS1              R10451                          0
    RHS1              R10452                          0
    RHS1              R10453                          0
    RHS1              R10454                          0
    RHS1              R10455                          0
    RHS1              R10456                          0
    RHS1              R10457                          0
    RHS1              R10458                          0
    RHS1              R10459                          0
    RHS1              R10460                          0
    RHS1              R10461                          0
    RHS1              R10462                          0
BOUNDS
 BV BND1              C22135
 BV BND1              C22136
 BV BND1              C22137
 BV BND1              C22138
 BV BND1              C22139
 BV BND1              C22140
 BV BND1              C22141
 BV BND1              C22142
 BV BND1              C22143
 BV BND1              C22144
 BV BND1              C22145
 BV BND1              C22146
 BV BND1              C22147
 BV BND1              C22148
 BV BND1              C22149
 BV BND1              C22150
 BV BND1              C22151
 BV BND1              C22152
ENDATA
