NAME          physiciansched3-3_ds
OBJSENSE
 MIN
ROWS
 N  OBJ
 L  r264661
 G  r264662
 L  r10833
 L  r10834
 L  r10835
 L  r10836
 L  r10837
 L  r10838
 L  r10839
 L  r10840
 L  r10841
 L  r10842
 L  r10843
 L  r10844
 L  r10845
 L  r10846
 L  r10847
 L  r10848
 L  r10849
 L  r10850
 L  r10851
 L  r10852
 L  r10853
 L  r10854
 L  r10855
 L  r10856
 L  r10857
 L  r10858
 L  r10859
 L  r10860
 L  r10861
 L  r10862
 L  r10863
 L  r10864
 L  r10865
 L  r10866
 L  r10867
 L  r10868
 L  r10869
 L  r10870
COLUMNS
    MARK0000  'MARKER'                 'INTORG'
    c10450           OBJ                             0 r264661                         1
    c10450           r264662                         1
    c11117           OBJ                             0 r264661                         1
    c11117           r264662                         1
    c11807           OBJ                             0 r264661                         1
    c11807           r264662                         1
    c12577           OBJ                             0 r264661                         1
    c12577           r264662                         1
    c13242           OBJ                             0 r264661                         1
    c13242           r264662                         1
    c13979           OBJ                             0 r264661                         1
    c13979           r264662                         1
    c14662           OBJ                             0 r264661                         1
    c14662           r264662                         1
    c15418           OBJ                             0 r264661                         1
    c15418           r264662                         1 r10863                         -1
    c15418           r10864                          1 r10865                         -1
    c15418           r10866                          1 r10867                         -1
    c15418           r10868                          1 r10869                         -1
    c15418           r10870                          1
    c16152           OBJ                             0 r264661                         1
    c16152           r264662                         1 r10853                         -1
    c16152           r10854                          1 r10855                         -1
    c16152           r10856                          1 r10857                         -1
    c16152           r10858                          1 r10859                         -1
    c16152           r10860                          1 r10861                         -1
    c16152           r10862                          1
    c1619            OBJ                             0 r264661                         1
    c1619            r264662                         1
    c16879           OBJ                             0 r264661                         1
    c16879           r264662                         1 r10845                         -1
    c16879           r10846                          1 r10847                         -1
    c16879           r10848                          1 r10849                         -1
    c16879           r10850                          1 r10851                         -1
    c16879           r10852                          1 r10861                          1
    c16879           r10862                         -1
    c17528           OBJ                             0 r264661                         1
    c17528           r264662                         1 r10839                         -1
    c17528           r10840                          1 r10841                         -1
    c17528           r10842                          1 r10843                         -1
    c17528           r10844                          1 r10851                          1
    c17528           r10852                         -1 r10859                          1
    c17528           r10860                         -1 r10869                          1
    c17528           r10870                         -1
    c18259           OBJ                             0 r264661                         1
    c18259           r264662                         1 r10835                         -1
    c18259           r10836                          1 r10837                         -1
    c18259           r10838                          1 r10843                          1
    c18259           r10844                         -1 r10849                          1
    c18259           r10850                         -1 r10857                          1
    c18259           r10858                         -1 r10867                          1
    c18259           r10868                         -1
    c18967           OBJ                             0 r264661                         1
    c18967           r264662                         1 r10833                         -1
    c18967           r10834                          1 r10837                          1
    c18967           r10838                         -1 r10841                          1
    c18967           r10842                         -1 r10847                          1
    c18967           r10848                         -1 r10855                          1
    c18967           r10856                         -1 r10865                          1
    c18967           r10866                         -1
    c19629           OBJ                             0 r264661                         1
    c19629           r264662                         1 r10833                          1
    c19629           r10834                         -1 r10835                          1
    c19629           r10836                         -1 r10839                          1
    c19629           r10840                         -1 r10845                          1
    c19629           r10846                         -1 r10853                          1
    c19629           r10854                         -1 r10863                          1
    c19629           r10864                         -1
    c2358            OBJ                             0 r264661                         1
    c2358            r264662                         1
    c2986            OBJ                             0 r264661                         1
    c2986            r264662                         1
    c3727            OBJ                             0 r264661                         1
    c3727            r264662                         1
    MARK0001  'MARKER'                 'INTEND'
RHS
    RHS1              r264661                         1
    RHS1              r264662                         1
    RHS1              r10833                          0
    RHS1              r10834                          2
    RHS1              r10835                          0
    RHS1              r10836                          2
    RHS1              r10837                          1
    RHS1              r10838                          1
    RHS1              r10839                          1
    RHS1              r10840                          1
    RHS1              r10841                          2
    RHS1              r10842                          0
    RHS1              r10843                          2
    RHS1              r10844                          0
    RHS1              r10845                          0
    RHS1              r10846                          2
    RHS1              r10847                          1
    RHS1              r10848                          1
    RHS1              r10849                          1
    RHS1              r10850                          1
    RHS1              r10851                          0
    RHS1              r10852                          2
    RHS1              r10853                          1
    RHS1              r10854                          1
    RHS1              r10855                          2
    RHS1              r10856                          0
    RHS1              r10857                          2
    RHS1              r10858                          0
    RHS1              r10859                          1
    RHS1              r10860                          1
    RHS1              r10861                          2
    RHS1              r10862                          0
    RHS1              r10863                          0
    RHS1              r10864                          2
    RHS1              r10865                          1
    RHS1              r10866                          1
    RHS1              r10867                          1
    RHS1              r10868                          1
    RHS1              r10869                          0
    RHS1              r10870                          2
BOUNDS
 BV BND1              c10450
 BV BND1              c11117
 BV BND1              c11807
 BV BND1              c12577
 BV BND1              c13242
 BV BND1              c13979
 BV BND1              c14662
 BV BND1              c15418
 BV BND1              c16152
 BV BND1              c1619
 BV BND1              c16879
 BV BND1              c17528
 BV BND1              c18259
 BV BND1              c18967
 BV BND1              c19629
 BV BND1              c2358
 BV BND1              c2986
 BV BND1              c3727
ENDATA
