NAME          neos8_ds
OBJSENSE
 MIN
ROWS
 N  OBJ
 L  R0001
 L  R0004
 L  R0065
 L  R0068
 L  R0002
 L  R0003
 L  R0066
 L  R0067
 G  R10000
 G  R10001
 G  R10002
 G  R10003
 G  R10004
 G  R10005
 G  R10006
 G  R10009
 G  R10010
 G  R10013
 G  R10014
 G  R10017
 G  R10021
 G  R10022
 G  R10025
 G  R10026
 G  R10027
 G  R10029
 G  R10030
 G  R10031
 G  R10032
 G  R10033
 G  R10034
 G  R10037
 G  R10038
 G  R10041
 G  R10042
 G  R10045
 G  R10049
 G  R10050
 G  R10053
 G  R10054
COLUMNS
    MARK0000  'MARKER'                 'INTORG'
    C0001            OBJ                         -2000 R0001                           1
    C0001            R0065                           3 R0002                           1
    C0001            R0003                           1 R0066                           4
    C0001            R0067                           5 R10009                          1
    C0001            R10037                          1
    C0002            OBJ                         -1900 R0001                           1
    C0002            R0065                           3 R0002                           1
    C0002            R0003                           1 R0066                           4
    C0002            R0067                           5 R10010                          1
    C0002            R10038                          1
    C0005            OBJ                         -2300 R0001                           1
    C0005            R0004                           1 R0065                           3
    C0005            R0068                           6 R0002                           1
    C0005            R0066                           4 R10013                          1
    C0005            R10041                          1
    C0006            OBJ                         -2200 R0001                           1
    C0006            R0004                           1 R0065                           3
    C0006            R0068                           6 R0002                           1
    C0006            R0066                           4 R10014                          1
    C0006            R10042                          1
    C0009            OBJ                         -2450 R0001                           1
    C0009            R0004                           1 R0065                           3
    C0009            R0068                           6 R0003                           1
    C0009            R0067                           5 R10017                          1
    C0009            R10045                          1
    C0010            OBJ                         -2450 R0001                           1
    C0010            R0004                           1 R0065                           3
    C0010            R0068                           6 R0003                           1
    C0010            R0067                           5 R10000                          1
    C0010            R10001                          1 R10002                          1
    C0010            R10003                          1 R10004                          1
    C0010            R10005                          1 R10006                          1
    C0010            R10009                          1 R10010                          1
    C0010            R10013                          1 R10014                          1
    C0010            R10017                          1 R10021                          1
    C0010            R10022                          1 R10025                          1
    C0010            R10026                          1 R10027                          1
    C0010            R10029                          1 R10030                          1
    C0010            R10031                          1 R10032                          1
    C0010            R10033                          1 R10034                          1
    C0010            R10037                          1 R10038                          1
    C0010            R10041                          1 R10042                          1
    C0010            R10045                          1 R10049                          1
    C0010            R10050                          1 R10053                          1
    C0010            R10054                          1
    C0013            OBJ                         -2600 R0004                           1
    C0013            R0068                           6 R0002                           1
    C0013            R0003                           1 R0066                           4
    C0013            R0067                           5 R10021                          1
    C0013            R10049                          1
    C0014            OBJ                         -2700 R0004                           1
    C0014            R0068                           6 R0002                           1
    C0014            R0003                           1 R0066                           4
    C0014            R0067                           5 R10022                          1
    C0014            R10050                          1
    C0017            OBJ                         -1500 R0001                           1
    C0017            R0065                           3 R0002                           1
    C0017            R0066                           4 R10025                          1
    C0017            R10053                          1
    C0018            OBJ                         -1400 R0001                           1
    C0018            R0065                           3 R0002                           1
    C0018            R0066                           4 R10026                          1
    C0018            R10054                          1
    C0019            OBJ                         -1700 R0004                           1
    C0019            R0068                           6 R0003                           1
    C0019            R0067                           5 R10000                          1
    C0019            R10001                          1 R10002                          1
    C0019            R10003                          1 R10004                          1
    C0019            R10005                          1 R10006                          1
    C0019            R10027                          1
    C0020            OBJ                         -1750 R0004                           1
    C0020            R0068                           6 R0003                           1
    C0020            R0067                           5 R10000                          1
    C0020            R10009                          1 R10010                          1
    C0020            R10013                          1 R10014                          1
    C0020            R10017                          1 R10021                          1
    C0020            R10022                          1 R10025                          1
    C0020            R10026                          1 R10027                          1
    C0020            R10029                          1 R10030                          1
    C0020            R10031                          1 R10032                          1
    C0020            R10033                          1 R10034                          1
    C0021            OBJ                         -1500 R0001                           1
    C0021            R0065                           3 R0003                           1
    C0021            R0067                           5 R10001                          1
    C0021            R10029                          1 R10037                          1
    C0021            R10038                          1 R10041                          1
    C0021            R10042                          1 R10045                          1
    C0021            R10049                          1 R10050                          1
    C0021            R10053                          1 R10054                          1
    C0022            OBJ                         -1600 R0001                           1
    C0022            R0065                           3 R0003                           1
    C0022            R0067                           5 R10002                          1
    C0022            R10030                          1
    C0023            OBJ                         -1500 R0004                           1
    C0023            R0068                           6 R0002                           1
    C0023            R0066                           4 R10003                          1
    C0023            R10031                          1
    C0024            OBJ                         -1500 R0004                           1
    C0024            R0068                           6 R0002                           1
    C0024            R0066                           4 R10004                          1
    C0024            R10032                          1
    C0025            OBJ                         -1450 R0001                           1
    C0025            R0004                           1 R0065                           3
    C0025            R0068                           6 R10005                          1
    C0025            R10033                          1
    C0026            OBJ                         -1850 R0001                           1
    C0026            R0004                           1 R0065                           3
    C0026            R0068                           6 R10006                          1
    C0026            R10034                          1
    MARK0001  'MARKER'                 'INTEND'
RHS
    RHS1              R0001                           1
    RHS1              R0004                           1
    RHS1              R0065                           0
    RHS1              R0068                           0
    RHS1              R0002                           1
    RHS1              R0003                           1
    RHS1              R0066                           0
    RHS1              R0067                           0
    RHS1              R10000                          0
    RHS1              R10001                          0
    RHS1              R10002                          0
    RHS1              R10003                          0
    RHS1              R10004                          0
    RHS1              R10005                          0
    RHS1              R10006                          0
    RHS1              R10009                          0
    RHS1              R10010                          0
    RHS1              R10013                          0
    RHS1              R10014                          0
    RHS1              R10017                          0
    RHS1              R10021                          0
    RHS1              R10022                          0
    RHS1              R10025                          0
    RHS1              R10026                          0
    RHS1              R10027                          0
    RHS1              R10029                          0
    RHS1              R10030                          0
    RHS1              R10031                          0
    RHS1              R10032                          0
    RHS1              R10033                          0
    RHS1              R10034                          0
    RHS1              R10037                          0
    RHS1              R10038                          0
    RHS1              R10041                          0
    RHS1              R10042                          0
    RHS1              R10045                          0
    RHS1              R10049                          0
    RHS1              R10050                          0
    RHS1              R10053                          0
    RHS1              R10054                          0
BOUNDS
 BV BND1              C0001
 BV BND1              C0002
 BV BND1              C0005
 BV BND1              C0006
 BV BND1              C0009
 BV BND1              C0010
 BV BND1              C0013
 BV BND1              C0014
 BV BND1              C0017
 BV BND1              C0018
 BV BND1              C0019
 BV BND1              C0020
 BV BND1              C0021
 BV BND1              C0022
 BV BND1              C0023
 BV BND1              C0024
 BV BND1              C0025
 BV BND1              C0026
ENDATA
