NAME          mcsched_ds
OBJSENSE
 MIN
ROWS
 N  OBJ
 E  R0002107
 E  R0000002
 E  R0000003
 E  R0000030
 L  R0000506
 L  R0000507
 L  R0000508
 E  R0000001
 L  R0000509
 L  R0000510
 L  R0000511
 L  R0000512
 L  R0000513
 L  R0000516
 L  R0000517
 L  R0000518
 L  R0000519
 L  R0000520
 L  R0000526
 L  R0000527
 L  R0000528
 L  R0000536
 L  R0000537
 L  R0000538
 L  R0000539
 L  R0000540
 L  R0000556
 L  R0000557
 L  R0000558
 L  R0000561
 L  R0000562
 L  R0000563
 L  R0000564
 L  R0000565
 L  R0000571
 L  R0000572
 L  R0000573
 L  R0000574
 L  R0000575
 L  R0000576
COLUMNS
    MARK0000  'MARKER'                 'INTORG'
    C0001601         OBJ                             0 R0002107                       -2
    C0001601         R0000002                        1 R0000506                        1
    C0001601         R0000516                       -1 R0000561                       -1
    C0001601         R0000571                       -1
    C0001602         OBJ                             0 R0002107                       -4
    C0001602         R0000002                        1 R0000507                        1
    C0001602         R0000517                       -1 R0000562                       -1
    C0001602         R0000572                       -1
    C0001603         OBJ                             0 R0002107                       -6
    C0001603         R0000002                        1 R0000508                        1
    C0001603         R0000518                       -1 R0000563                       -1
    C0001603         R0000573                       -1
    C0001604         OBJ                             0 R0002107                       -8
    C0001604         R0000002                        1 R0000509                        1
    C0001604         R0000519                       -1 R0000564                       -1
    C0001604         R0000574                       -1
    C0001605         OBJ                             0 R0002107                      -10
    C0001605         R0000002                        1 R0000510                        1
    C0001605         R0000520                       -1 R0000565                       -1
    C0001605         R0000575                       -1
    C0001606         OBJ                             0 R0002107                       -3
    C0001606         R0000003                        1 R0000506                        1
    C0001606         R0000576                       -1
    C0001607         OBJ                             0 R0002107                       -6
    C0001607         R0000003                        1 R0000507                        1
    C0001608         OBJ                             0 R0002107                       -9
    C0001608         R0000003                        1 R0000508                        1
    C0001609         OBJ                             0 R0002107                      -12
    C0001609         R0000003                        1 R0000509                        1
    C0001610         OBJ                             0 R0002107                      -15
    C0001610         R0000003                        1 R0000510                        1
    C0001741         OBJ                             0 R0002107                      -30
    C0001741         R0000030                        1 R0000506                        1
    C0001741         R0000536                       -1
    C0001742         OBJ                             0 R0002107                      -60
    C0001742         R0000030                        1 R0000507                        1
    C0001742         R0000537                       -1
    C0001743         OBJ                             0 R0002107                      -90
    C0001743         R0000030                        1 R0000508                        1
    C0001743         R0000538                       -1
    C0001744         OBJ                             0 R0002107                     -120
    C0001744         R0000030                        1 R0000509                        1
    C0001744         R0000539                       -1
    C0001745         OBJ                             0 R0002107                     -150
    C0001745         R0000030                        1 R0000510                        1
    C0001745         R0000540                       -1
    C0001596         OBJ                             0 R0002107                       -1
    C0001596         R0000506                        1 R0000001                        1
    C0001596         R0000511                       -1 R0000526                       -1
    C0001596         R0000556                       -1
    C0001597         OBJ                             0 R0002107                       -2
    C0001597         R0000507                        1 R0000001                        1
    C0001597         R0000512                       -1 R0000527                       -1
    C0001597         R0000557                       -1
    C0001598         OBJ                             0 R0002107                       -3
    C0001598         R0000508                        1 R0000001                        1
    C0001598         R0000513                       -1 R0000528                       -1
    C0001598         R0000558                       -1
    MARK0001  'MARKER'                 'INTEND'
RHS
    RHS1              R0002107                        0
    RHS1              R0000002                        0
    RHS1              R0000003                        0
    RHS1              R0000030                        0
    RHS1              R0000506                        0
    RHS1              R0000507                        0
    RHS1              R0000508                        0
    RHS1              R0000001                        0
    RHS1              R0000509                        0
    RHS1              R0000510                        0
    RHS1              R0000511                        0
    RHS1              R0000512                        0
    RHS1              R0000513                        0
    RHS1              R0000516                        0
    RHS1              R0000517                        0
    RHS1              R0000518                        0
    RHS1              R0000519                        0
    RHS1              R0000520                        0
    RHS1              R0000526                        0
    RHS1              R0000527                        0
    RHS1              R0000528                        0
    RHS1              R0000536                        0
    RHS1              R0000537                        0
    RHS1              R0000538                        0
    RHS1              R0000539                        0
    RHS1              R0000540                        0
    RHS1              R0000556                        0
    RHS1              R0000557                        0
    RHS1              R0000558                        0
    RHS1              R0000561                        0
    RHS1              R0000562                        0
    RHS1              R0000563                        0
    RHS1              R0000564                        0
    RHS1              R0000565                        0
    RHS1              R0000571                        0
    RHS1              R0000572                        0
    RHS1              R0000573                        0
    RHS1              R0000574                        0
    RHS1              R0000575                        0
    RHS1              R0000576                        0
BOUNDS
 BV BND1              C0001601
 BV BND1              C0001602
 BV BND1              C0001603
 BV BND1              C0001604
 BV BND1              C0001605
 BV BND1              C0001606
 BV BND1              C0001607
 BV BND1              C0001608
 BV BND1              C0001609
 BV BND1              C0001610
 BV BND1              C0001741
 BV BND1              C0001742
 BV BND1              C0001743
 BV BND1              C0001744
 BV BND1              C0001745
 BV BND1              C0001596
 BV BND1              C0001597
 BV BND1              C0001598
ENDATA
