NAME          rd-rplusc-21_ds
OBJSENSE
 MIN
ROWS
 N  OBJ
 E  c125520
 E  c125219
 G  c125320
 G  c125898
 L  c125899
 G  c125319
 G  c100
 G  c100794
 G  c100795
 G  c100796
 G  c100797
 G  c100798
 G  c100799
 G  c100800
 G  c100801
 G  c100802
 G  c100803
 G  c100804
 G  c100805
 G  c100806
 G  c100807
 G  c100808
 G  c100809
 G  c100810
 G  c100811
 G  c100812
 G  c100813
 G  c100814
 G  c100815
 G  c100816
 G  c100817
 G  c100818
 G  c100819
 G  c100820
 G  c100821
 G  c100822
 G  c100823
 G  c100824
 G  c100825
 G  c100826
COLUMNS
    MARK0000  'MARKER'                 'INTORG'
    x53              OBJ                             0 c125219                         1
    x53              c125320               9.99837e+08 c125898                        -1
    x53              c125899                         3 c125319               5.89991e+08
    x53              c100809                    -1e+07 c100810                    -1e+07
    x53              c100811                    -1e+07 c100812                    -1e+07
    x53              c100813                    -1e+07
    x52              OBJ                             0 c125219                         1
    x52              c125320               1.00009e+09 c125898                        -2
    x52              c125899                         2 c125319              -5.90204e+08
    x52              c100804                    -1e+07 c100805                    -1e+07
    x52              c100806                    -1e+07 c100807                    -1e+07
    x52              c100808                    -1e+07
    x54              OBJ                             0 c125219                         1
    x54              c125320                     1e+09 c125899                         4
    x54              c125319                   5.9e+08 c100814                    -1e+07
    x54              c100815                    -1e+07 c100816                    -1e+07
    x54              c100817                    -1e+07 c100818                    -1e+07
    x51              OBJ                             0 c125219                         1
    x51              c125320              -1.00069e+09 c125898                        -3
    x51              c125899                         1 c100                       -1e+07
    x51              c100799                    -1e+07 c100800                    -1e+07
    x51              c100801                    -1e+07 c100802                    -1e+07
    x51              c100803                    -1e+07 c100824                    -1e+07
    x51              c100825                    -1e+07 c100826                    -1e+07
    x50              OBJ                             0 c125219                         1
    x50              c125898                        -4 c100794                    -1e+07
    x50              c100795                    -1e+07 c100796                    -1e+07
    x50              c100797                    -1e+07 c100798                    -1e+07
    x50              c100819                    -1e+07 c100820                    -1e+07
    x50              c100821                    -1e+07 c100822                    -1e+07
    x50              c100823                    -1e+07
    x100             OBJ                             0 c125520                         1
    x100             c100794                    -1e+07 c100795                    -1e+07
    x100             c100796                    -1e+07 c100797                    -1e+07
    x100             c100798                    -1e+07 c100799                    -1e+07
    x100             c100800                    -1e+07 c100801                    -1e+07
    x100             c100802                    -1e+07 c100803                    -1e+07
    x100             c100804                    -1e+07 c100805                    -1e+07
    x100             c100806                    -1e+07 c100807                    -1e+07
    x100             c100808                    -1e+07 c100809                    -1e+07
    x100             c100810                    -1e+07 c100811                    -1e+07
    x100             c100812                    -1e+07 c100813                    -1e+07
    x100             c100814                    -1e+07 c100815                    -1e+07
    x100             c100816                    -1e+07 c100817                    -1e+07
    x100             c100818                    -1e+07
    x101             OBJ                             0 c125520                         1
    x101             c100819                    -1e+07 c100820                    -1e+07
    x101             c100821                    -1e+07 c100822                    -1e+07
    x101             c100823                    -1e+07 c100824                    -1e+07
    x101             c100825                    -1e+07 c100826                    -1e+07
    x49              OBJ                             0 c125520                         1
    x55              OBJ                             0 c125520                         1
    x56              OBJ                             0 c125520                         1
    x56              c100                       -1e+07
    x57              OBJ                             0 c125520                         1
    x58              OBJ                             0 c125520                         1
    x59              OBJ                             0 c125520                         1
    x60              OBJ                             0 c125520                         1
    x61              OBJ                             0 c125520                         1
    x62              OBJ                             0 c125520                         1
    x63              OBJ                             0 c125520                         1
    x64              OBJ                             0 c125520                         1
    MARK0001  'MARKER'                 'INTEND'
RHS
    RHS1              c125520                         0
    RHS1              c125219                         0
    RHS1              c125320                         0
    RHS1              c125898                         0
    RHS1              c125899                         0
    RHS1              c125319                         0
    RHS1              c100                            0
    RHS1              c100794                         0
    RHS1              c100795                         0
    RHS1              c100796                         0
    RHS1              c100797                         0
    RHS1              c100798                         0
    RHS1              c100799                         0
    RHS1              c100800                         0
    RHS1              c100801                         0
    RHS1              c100802                         0
    RHS1              c100803                         0
    RHS1              c100804                         0
    RHS1              c100805                         0
    RHS1              c100806                         0
    RHS1              c100807                         0
    RHS1              c100808                         0
    RHS1              c100809                         0
    RHS1              c100810                         0
    RHS1              c100811                         0
    RHS1              c100812                         0
    RHS1              c100813                         0
    RHS1              c100814                         0
    RHS1              c100815                         0
    RHS1              c100816                         0
    RHS1              c100817                         0
    RHS1              c100818                         0
    RHS1              c100819                         0
    RHS1              c100820                         0
    RHS1              c100821                         0
    RHS1              c100822                         0
    RHS1              c100823                         0
    RHS1              c100824                         0
    RHS1              c100825                         0
    RHS1              c100826                         0
BOUNDS
 BV BND1              x53
 BV BND1              x52
 BV BND1              x54
 BV BND1              x51
 BV BND1              x50
 BV BND1              x100
 BV BND1              x101
 BV BND1              x49
 BV BND1              x55
 BV BND1              x56
 BV BND1              x57
 BV BND1              x58
 BV BND1              x59
 BV BND1              x60
 BV BND1              x61
 BV BND1              x62
 BV BND1              x63
 BV BND1              x64
ENDATA
