NAME          irp_ds
OBJSENSE
 MIN
ROWS
 N  OBJ
 E  R0002
 E  R0003
 E  R0007
 E  R0010
 E  R0015
 E  R0020
 E  R0026
 E  R0030
 E  R0032
 E  R0033
 E  R0037
 E  R0039
COLUMNS
    MARK0000  'MARKER'                 'INTORG'
    C16900           OBJ                   5.73522e+09 R0002                           1
    C16900           R0003                           1 R0007                           1
    C16900           R0010                           1 R0015                           1
    C16900           R0020                           1
    C16901           OBJ                   5.67517e+09 R0002                           1
    C16901           R0003                           1 R0007                           1
    C16901           R0010                           1 R0015                           1
    C16901           R0026                           1
    C16902           OBJ                   5.86313e+09 R0002                           1
    C16902           R0003                           1 R0007                           1
    C16902           R0010                           1 R0015                           1
    C16902           R0030                           1
    C16903           OBJ                   5.76049e+09 R0002                           1
    C16903           R0003                           1 R0007                           1
    C16903           R0010                           1 R0015                           1
    C16903           R0032                           1
    C16904           OBJ                   6.15483e+09 R0002                           1
    C16904           R0003                           1 R0007                           1
    C16904           R0010                           1 R0015                           1
    C16904           R0033                           1
    C16905           OBJ                   5.67493e+09 R0002                           1
    C16905           R0003                           1 R0007                           1
    C16905           R0010                           1 R0015                           1
    C16905           R0037                           1
    C16906           OBJ                   5.62728e+09 R0002                           1
    C16906           R0003                           1 R0007                           1
    C16906           R0010                           1 R0015                           1
    C16906           R0039                           1
    C16908           OBJ                   5.86124e+09 R0002                           1
    C16908           R0003                           1 R0007                           1
    C16908           R0010                           1 R0020                           1
    C16908           R0026                           1
    C16909           OBJ                    6.0492e+09 R0002                           1
    C16909           R0003                           1 R0007                           1
    C16909           R0010                           1 R0020                           1
    C16909           R0030                           1
    C16910           OBJ                   5.94695e+09 R0002                           1
    C16910           R0003                           1 R0007                           1
    C16910           R0010                           1 R0020                           1
    C16910           R0032                           1
    C16911           OBJ                   6.34089e+09 R0002                           1
    C16911           R0003                           1 R0007                           1
    C16911           R0010                           1 R0020                           1
    C16911           R0033                           1
    C16912           OBJ                   5.86138e+09 R0002                           1
    C16912           R0003                           1 R0007                           1
    C16912           R0010                           1 R0020                           1
    C16912           R0037                           1
    C16913           OBJ                   5.81335e+09 R0002                           1
    C16913           R0003                           1 R0007                           1
    C16913           R0010                           1 R0020                           1
    C16913           R0039                           1
    C16915           OBJ                   5.98916e+09 R0002                           1
    C16915           R0003                           1 R0007                           1
    C16915           R0010                           1 R0026                           1
    C16915           R0030                           1
    C16916           OBJ                    5.8869e+09 R0002                           1
    C16916           R0003                           1 R0007                           1
    C16916           R0010                           1 R0026                           1
    C16916           R0032                           1
    C16917           OBJ                   6.28085e+09 R0002                           1
    C16917           R0003                           1 R0007                           1
    C16917           R0010                           1 R0026                           1
    C16917           R0033                           1
    C16918           OBJ                   5.80133e+09 R0002                           1
    C16918           R0003                           1 R0007                           1
    C16918           R0010                           1 R0026                           1
    C16918           R0037                           1
    C16919           OBJ                    5.7533e+09 R0002                           1
    C16919           R0003                           1 R0007                           1
    C16919           R0010                           1 R0026                           1
    C16919           R0039                           1
    MARK0001  'MARKER'                 'INTEND'
RHS
    RHS1              R0002                           1
    RHS1              R0003                           1
    RHS1              R0007                           1
    RHS1              R0010                           1
    RHS1              R0015                           1
    RHS1              R0020                           1
    RHS1              R0026                           1
    RHS1              R0030                           1
    RHS1              R0032                           1
    RHS1              R0033                           1
    RHS1              R0037                           1
    RHS1              R0039                           1
BOUNDS
 BV BND1              C16900
 BV BND1              C16901
 BV BND1              C16902
 BV BND1              C16903
 BV BND1              C16904
 BV BND1              C16905
 BV BND1              C16906
 BV BND1              C16908
 BV BND1              C16909
 BV BND1              C16910
 BV BND1              C16911
 BV BND1              C16912
 BV BND1              C16913
 BV BND1              C16915
 BV BND1              C16916
 BV BND1              C16917
 BV BND1              C16918
 BV BND1              C16919
ENDATA
