NAME          lectsched-5-obj_ds
OBJSENSE
 MIN
ROWS
 N  OBJ
 L  R0000617
 L  R0000653
 L  R0000668
 L  R0005696
 L  R0005697
 L  R0005698
 L  R0005699
 L  R0005748
 L  R0005749
 L  R0005750
 L  R0005751
 L  R0005966
 L  R0005967
 L  R0005968
 L  R0005969
 L  R0006028
 L  R0006029
 L  R0006064
 L  R0006065
 L  R0006066
 L  R0006067
 L  R0006068
 L  R0006069
 L  R0006070
 L  R0006071
 L  R0006188
 L  R0006189
 L  R0006190
 L  R0006191
 L  R0006196
 L  R0006197
 L  R0006198
 L  R0006199
 L  R0006288
 L  R0006289
 L  R0006290
 L  R0006291
 L  R0006302
 L  R0006303
 L  R0006310
COLUMNS
    MARK0000  'MARKER'                 'INTORG'
    C0000328         OBJ                             0
    C0000319         OBJ                             0
    C0000196         OBJ                             0 R0005966                       24
    C0000196         R0005967                      -24 R0005968                       24
    C0000196         R0005969                      -24 R0006064                      -24
    C0000196         R0006065                       24 R0006066                      -24
    C0000196         R0006067                       24
    C0000086         OBJ                             0 R0005966                      -24
    C0000086         R0005967                       24 R0006028                      -24
    C0000086         R0006029                       24 R0006310                      -24
    C0000220         OBJ                             0 R0005968                      -24
    C0000220         R0005969                       24 R0006028                       24
    C0000220         R0006029                      -24
    C0000127         OBJ                             0
    C0000263         OBJ                             0 R0000653                        1
    C0000263         R0006064                       24 R0006065                      -24
    C0000263         R0006068                       24 R0006069                      -24
    C0000263         R0006070                      -24 R0006071                       24
    C0000265         OBJ                             0 R0000653                       -1
    C0000265         R0006066                       24 R0006067                      -24
    C0000265         R0006068                      -24 R0006069                       24
    C0000265         R0006070                       24 R0006071                      -24
    C0000071         OBJ                             0 R0006302                      -24
    C0000071         R0006303                       24
    C0000238         OBJ                             0
    C0000001         OBJ                             0 R0005696                       24
    C0000001         R0005697                      -24 R0005698                       24
    C0000001         R0005699                      -24 R0006188                      -24
    C0000001         R0006189                       24 R0006190                      -24
    C0000001         R0006191                       24 R0006288                       24
    C0000001         R0006289                      -24 R0006290                       24
    C0000001         R0006291                      -24 R0006302                       24
    C0000001         R0006303                      -24 R0006310                       24
    C0000053         OBJ                             0
    C0000184         OBJ                             0
    C0000381         OBJ                             0
    C0000048         OBJ                             0 R0000617                        1
    C0000048         R0005696                      -24 R0005697                       24
    C0000048         R0005748                       24 R0005749                      -24
    C0000048         R0005750                      -24 R0005751                       24
    C0000048         R0006288                      -24 R0006289                       24
    C0000051         OBJ                             0 R0000617                       -1
    C0000051         R0005698                      -24 R0005699                       24
    C0000051         R0005748                      -24 R0005749                       24
    C0000051         R0005750                       24 R0005751                      -24
    C0000051         R0006290                      -24 R0006291                       24
    C0000359         OBJ                             0 R0000668                        1
    C0000359         R0006188                       24 R0006189                      -24
    C0000359         R0006196                       24 R0006197                      -24
    C0000359         R0006198                      -24 R0006199                       24
    C0000361         OBJ                             0 R0000668                       -1
    C0000361         R0006190                       24 R0006191                      -24
    C0000361         R0006196                      -24 R0006197                       24
    C0000361         R0006198                       24 R0006199                      -24
    MARK0001  'MARKER'                 'INTEND'
RHS
    RHS1              R0000617                       -1
    RHS1              R0000653                       -1
    RHS1              R0000668                       -1
    RHS1              R0005696                      118
    RHS1              R0005697                       -2
    RHS1              R0005698                      118
    RHS1              R0005699                       -1
    RHS1              R0005748                      118
    RHS1              R0005749                       -1
    RHS1              R0005750                      119
    RHS1              R0005751                       -2
    RHS1              R0005966                      118
    RHS1              R0005967                       -2
    RHS1              R0005968                      118
    RHS1              R0005969                       -2
    RHS1              R0006028                      118
    RHS1              R0006029                       -2
    RHS1              R0006064                      118
    RHS1              R0006065                       -2
    RHS1              R0006066                      119
    RHS1              R0006067                       -2
    RHS1              R0006068                      118
    RHS1              R0006069                       -1
    RHS1              R0006070                      119
    RHS1              R0006071                       -2
    RHS1              R0006188                      118
    RHS1              R0006189                       -2
    RHS1              R0006190                      118
    RHS1              R0006191                       -2
    RHS1              R0006196                      118
    RHS1              R0006197                       -2
    RHS1              R0006198                      118
    RHS1              R0006199                       -2
    RHS1              R0006288                     1318
    RHS1              R0006289                       -2
    RHS1              R0006290                     1318
    RHS1              R0006291                       -1
    RHS1              R0006302                     1318
    RHS1              R0006303                       -2
    RHS1              R0006310                     1318
BOUNDS
 LI BND1              C0000328                        0
 UI BND1              C0000328                        4
 LI BND1              C0000319                        0
 UI BND1              C0000319                        4
 LI BND1              C0000196                        0
 UI BND1              C0000196                        4
 LI BND1              C0000086                        0
 UI BND1              C0000086                        4
 LI BND1              C0000220                        0
 UI BND1              C0000220                        4
 LI BND1              C0000127                        0
 UI BND1              C0000127                        4
 LI BND1              C0000263                        0
 UI BND1              C0000263                        4
 LI BND1              C0000265                        0
 UI BND1              C0000265                        4
 LI BND1              C0000071                        0
 UI BND1              C0000071                        4
 LI BND1              C0000238                        0
 UI BND1              C0000238                        4
 LI BND1              C0000001                        0
 UI BND1              C0000001                        4
 LI BND1              C0000053                        0
 UI BND1              C0000053                        4
 LI BND1              C0000184                        0
 UI BND1              C0000184                        4
 LI BND1              C0000381                        0
 UI BND1              C0000381                        4
 LI BND1              C0000048                        0
 UI BND1              C0000048                        4
 LI BND1              C0000051                        0
 UI BND1              C0000051                        4
 LI BND1              C0000359                        0
 UI BND1              C0000359                        4
 LI BND1              C0000361                        0
 UI BND1              C0000361                        4
ENDATA
