NAME          neos-5188808-nattai_ds
OBJSENSE
 MIN
ROWS
 N  OBJ
 L  R15052
 E  R15179
 E  R15180
 E  R15181
 L  R17573
 L  R17574
 L  R17575
 L  R17576
 L  R17577
 L  R17578
 L  R17579
 L  R17580
 L  R17581
 L  R17582
 L  R17583
 L  R17584
 L  R17585
 L  R17586
 L  R17587
 L  R17588
 L  R17589
 L  R17590
 L  R17591
 L  R17592
 L  R17593
 L  R17594
 L  R17595
 L  R17596
 L  R17597
 L  R17598
 L  R17599
 L  R17600
 L  R17601
 L  R17602
 L  R17603
 L  R17604
 L  R17605
 L  R17606
 L  R17607
 L  R17608
COLUMNS
    MARK0000  'MARKER'                 'INTORG'
    C14294           OBJ                             0 R15052                        -20
    C14294           R15179                          1 R17573                     -66731
    C14294           R17574                     -66731 R17575                     -66731
    C14294           R17576                     -66731 R17577                     -66731
    C14294           R17578                     -66731 R17579                     -66731
    C14294           R17580                     -66731 R17581                     -66731
    C14294           R17582                     -66731 R17583                     -66731
    C14294           R17584                     -66731 R17585                     -66731
    C14294           R17586                     -66731 R17587                     -66731
    C14294           R17588                     -66731 R17589                     -66731
    C14294           R17590                     -66731 R17591                     -66731
    C14294           R17592                     -66731 R17593                     -66731
    C14294           R17594                     -66731 R17595                     -66731
    C14294           R17596                     -66731 R17597                     -66731
    C14294           R17598                     -66731 R17599                     -66731
    C14294           R17600                     -66731 R17601                     -66731
    C14294           R17602                     -66731 R17603                     -66731
    C14294           R17604                     -66731 R17605                     -66731
    C14294           R17606                     -66731 R17607                     -66731
    C14294           R17608                     -66731
    C14295           OBJ                             0 R15052                         20
    C14295           R15179                          1 R17573                     -22244
    C14295           R17574                     -22244 R17575                     -22244
    C14295           R17576                     -22244 R17577                     -22244
    C14295           R17578                     -22244 R17579                     -22244
    C14295           R17580                     -22244 R17581                     -22244
    C14295           R17582                     -22244 R17583                     -22244
    C14295           R17584                     -22244 R17585                     -22244
    C14295           R17586                     -22244 R17587                     -22244
    C14295           R17588                     -22244 R17589                     -22244
    C14295           R17590                     -22244 R17591                     -22244
    C14295           R17592                     -22244 R17593                     -22244
    C14295           R17594                     -22244 R17595                     -22244
    C14295           R17596                     -22244 R17597                     -22244
    C14295           R17598                     -22244 R17599                     -22244
    C14295           R17600                     -22244 R17601                     -22244
    C14295           R17602                     -22244 R17603                     -22244
    C14295           R17604                     -22244 R17605                     -22244
    C14295           R17606                     -22244 R17607                     -22244
    C14295           R17608                     -22244
    C14296           OBJ                             0 R15052                         43
    C14296           R15179                          1 R17573                     -11122
    C14296           R17574                     -11122 R17575                     -11122
    C14296           R17576                     -11122 R17577                     -11122
    C14296           R17578                     -11122 R17579                     -11122
    C14296           R17580                     -11122 R17581                     -11122
    C14296           R17582                     -11122 R17583                     -11122
    C14296           R17584                     -11122 R17585                     -11122
    C14296           R17586                     -11122 R17587                     -11122
    C14296           R17588                     -11122 R17589                     -11122
    C14296           R17590                     -11122 R17591                     -11122
    C14296           R17592                     -11122 R17593                     -11122
    C14296           R17594                     -11122 R17595                     -11122
    C14296           R17596                     -11122 R17597                     -11122
    C14296           R17598                     -11122 R17599                     -11122
    C14296           R17600                     -11122 R17601                     -11122
    C14296           R17602                     -11122 R17603                     -11122
    C14296           R17604                     -11122 R17605                     -11122
    C14296           R17606                     -11122 R17607                     -11122
    C14296           R17608                     -11122
    C14297           OBJ                             0 R15052                         59
    C14297           R15179                          1 R17573                      -5561
    C14297           R17574                      -5561 R17575                      -5561
    C14297           R17576                      -5561 R17577                      -5561
    C14297           R17578                      -5561 R17579                      -5561
    C14297           R17580                      -5561 R17581                      -5561
    C14297           R17582                      -5561 R17583                      -5561
    C14297           R17584                      -5561 R17585                      -5561
    C14297           R17586                      -5561 R17587                      -5561
    C14297           R17588                      -5561 R17589                      -5561
    C14297           R17590                      -5561 R17591                      -5561
    C14297           R17592                      -5561 R17593                      -5561
    C14297           R17594                      -5561 R17595                      -5561
    C14297           R17596                      -5561 R17597                      -5561
    C14297           R17598                      -5561 R17599                      -5561
    C14297           R17600                      -5561 R17601                      -5561
    C14297           R17602                      -5561 R17603                      -5561
    C14297           R17604                      -5561 R17605                      -5561
    C14297           R17606                      -5561 R17607                      -5561
    C14297           R17608                      -5561
    C14298           OBJ                             0 R15052                         67
    C14298           R15179                          1 R17573                      -2780
    C14298           R17574                      -2780 R17575                      -2780
    C14298           R17576                      -2780 R17577                      -2780
    C14298           R17578                      -2780 R17579                      -2780
    C14298           R17580                      -2780 R17581                      -2780
    C14298           R17582                      -2780 R17583                      -2780
    C14298           R17584                      -2780 R17585                      -2780
    C14298           R17586                      -2780 R17587                      -2780
    C14298           R17588                      -2780 R17589                      -2780
    C14298           R17590                      -2780 R17591                      -2780
    C14298           R17592                      -2780 R17593                      -2780
    C14298           R17594                      -2780 R17595                      -2780
    C14298           R17596                      -2780 R17597                      -2780
    C14298           R17598                      -2780 R17599                      -2780
    C14298           R17600                      -2780 R17601                      -2780
    C14298           R17602                      -2780 R17603                      -2780
    C14298           R17604                      -2780 R17605                      -2780
    C14298           R17606                      -2780 R17607                      -2780
    C14298           R17608                      -2780
    C14299           OBJ                             0 R15052                         72
    C14299           R15179                          1 R17573                      -1390
    C14299           R17574                      -1390 R17575                      -1390
    C14299           R17576                      -1390 R17577                      -1390
    C14299           R17578                      -1390 R17579                      -1390
    C14299           R17580                      -1390 R17581                      -1390
    C14299           R17582                      -1390 R17583                      -1390
    C14299           R17584                      -1390 R17585                      -1390
    C14299           R17586                      -1390 R17587                      -1390
    C14299           R17588                      -1390 R17589                      -1390
    C14299           R17590                      -1390 R17591                      -1390
    C14299           R17592                      -1390 R17593                      -1390
    C14299           R17594                      -1390 R17595                      -1390
    C14299           R17596                      -1390 R17597                      -1390
    C14299           R17598                      -1390 R17599                      -1390
    C14299           R17600                      -1390 R17601                      -1390
    C14299           R17602                      -1390 R17603                      -1390
    C14299           R17604                      -1390 R17605                      -1390
    C14299           R17606                      -1390 R17607                      -1390
    C14299           R17608                      -1390
    C14301           OBJ                             0 R15052                         -3
    C14301           R15180                          1
    C14302           OBJ                             0 R15052                          3
    C14302           R15180                          1
    C14303           OBJ                             0 R15052                          6
    C14303           R15180                          1
    C14304           OBJ                             0 R15052                          8
    C14304           R15180                          1
    C14305           OBJ                             0 R15052                          9
    C14305           R15180                          1
    C14306           OBJ                             0 R15052                          9
    C14306           R15180                          1
    C14308           OBJ                             0 R15052                        -27
    C14308           R15181                          1
    C14309           OBJ                             0 R15052                         27
    C14309           R15181                          1
    C14310           OBJ                             0 R15052                         60
    C14310           R15181                          1
    C14311           OBJ                             0 R15052                         82
    C14311           R15181                          1
    C14312           OBJ                             0 R15052                         94
    C14312           R15181                          1
    C14313           OBJ                             0 R15052                        100
    C14313           R15181                          1
    MARK0001  'MARKER'                 'INTEND'
RHS
    RHS1              R15052                        221
    RHS1              R15179                          1
    RHS1              R15180                          1
    RHS1              R15181                          1
    RHS1              R17573                          0
    RHS1              R17574                          0
    RHS1              R17575                          0
    RHS1              R17576                          0
    RHS1              R17577                          0
    RHS1              R17578                          0
    RHS1              R17579                          0
    RHS1              R17580                          0
    RHS1              R17581                          0
    RHS1              R17582                          0
    RHS1              R17583                          0
    RHS1              R17584                          0
    RHS1              R17585                          0
    RHS1              R17586                          0
    RHS1              R17587                          0
    RHS1              R17588                          0
    RHS1              R17589                          0
    RHS1              R17590                          0
    RHS1              R17591                          0
    RHS1              R17592                          0
    RHS1              R17593                          0
    RHS1              R17594                          0
    RHS1              R17595                          0
    RHS1              R17596                          0
    RHS1              R17597                          0
    RHS1              R17598                          0
    RHS1              R17599                          0
    RHS1              R17600                          0
    RHS1              R17601                          0
    RHS1              R17602                          0
    RHS1              R17603                          0
    RHS1              R17604                          0
    RHS1              R17605                          0
    RHS1              R17606                          0
    RHS1              R17607                          0
    RHS1              R17608                          0
BOUNDS
 BV BND1              C14294
 BV BND1              C14295
 BV BND1              C14296
 BV BND1              C14297
 BV BND1              C14298
 BV BND1              C14299
 BV BND1              C14301
 BV BND1              C14302
 BV BND1              C14303
 BV BND1              C14304
 BV BND1              C14305
 BV BND1              C14306
 BV BND1              C14308
 BV BND1              C14309
 BV BND1              C14310
 BV BND1              C14311
 BV BND1              C14312
 BV BND1              C14313
ENDATA
