NAME          opm2-z10-s4_ds
OBJSENSE
 MIN
ROWS
 N  OBJ
 L  c1
 L  c2
 L  c3
 L  c4
 L  c5
 L  c6
 L  c7
 L  c8
 L  c110801
 L  c110802
 L  c110803
 L  c110804
 L  c110805
 L  c110806
 L  c110807
 L  c110808
 L  c110809
 L  c110810
 L  c110811
 L  c110812
 L  c110813
 L  c110814
 L  c110815
 L  c110816
 L  c110817
 L  c110818
 L  c110819
 L  c110820
 L  c110821
 L  c110822
 L  c110823
 L  c110824
 L  c110825
 L  c110826
 L  c110827
 L  c110828
 L  c110829
 L  c110830
 L  c110831
 L  c110832
COLUMNS
    MARK0000  'MARKER'                 'INTORG'
    x1000            OBJ                           130 c1                           3648
    x1000            c2                           3237 c3                           3499
    x1000            c4                           2117 c5                           1320
    x1000            c6                           4048 c7                           1845
    x1000            c8                            350
    x1001            OBJ                           316 c1                           2711
    x1001            c2                           2326 c3                           3238
    x1001            c4                           2011 c5                            330
    x1001            c6                            467 c7                           2200
    x1001            c8                           3436
    x1002            OBJ                          -341 c1                           2972
    x1002            c2                           3660 c3                           2473
    x1002            c4                            544 c5                           3712
    x1002            c6                           3740 c7                           3592
    x1002            c8                           3210
    x1003            OBJ                          -350 c1                           2454
    x1003            c2                            239 c3                           1631
    x1003            c4                           1031 c5                           1155
    x1003            c6                           2574 c7                           3712
    x1003            c8                           1624
    x1004            OBJ                          -115 c1                           1843
    x1004            c2                           3703 c3                            706
    x1004            c4                           1580 c5                            325
    x1004            c6                            146 c7                           1853
    x1004            c8                            358
    x1005            OBJ                          -174 c1                           3027
    x1005            c2                            905 c3                           3532
    x1005            c4                           3831 c5                           3078
    x1005            c6                           3979 c7                           3844
    x1005            c8                           1070
    x1006            OBJ                           127 c1                           1318
    x1006            c2                           3946 c3                           1354
    x1006            c4                           3027 c5                           2882
    x1006            c6                            752 c7                           3090
    x1006            c8                            914
    x1007            OBJ                           -15 c1                           1896
    x1007            c2                           3695 c3                           1995
    x1007            c4                           3717 c5                            809
    x1007            c6                           2263 c7                           3623
    x1007            c8                            141
    x1008            OBJ                          -249 c1                            867
    x1008            c2                           3534 c3                           1566
    x1008            c4                            182 c5                           1362
    x1008            c6                           3742 c7                           3284
    x1008            c8                           1563
    x1009            OBJ                          -342 c1                            616
    x1009            c2                           4007 c3                            301
    x1009            c4                           3928 c5                            946
    x1009            c6                           2789 c7                           2027
    x1009            c8                           1309
    x1010            OBJ                           -44 c1                           3395
    x1010            c2                            728 c3                           3785
    x1010            c4                           2028 c5                           2411
    x1010            c6                           4073 c7                           3502
    x1010            c8                           1634
    x1011            OBJ                           210 c1                           1365
    x1011            c2                           1863 c3                           1204
    x1011            c4                           2596 c5                           2698
    x1011            c6                            388 c7                            575
    x1011            c8                           3356
    x1012            OBJ                            -6 c1                           2219
    x1012            c2                           3174 c3                           2379
    x1012            c4                           3632 c5                           3177
    x1012            c6                           3663 c7                           1660
    x1012            c8                           2281
    x1013            OBJ                          -389 c1                           2410
    x1013            c2                           3716 c3                           1062
    x1013            c4                           2738 c5                           1542
    x1013            c6                           3768 c7                           2420
    x1013            c8                           2486
    x1014            OBJ                          -237 c1                            476
    x1014            c2                           3783 c3                           2119
    x1014            c4                           1344 c5                           3292
    x1014            c6                           1129 c7                            766
    x1014            c8                           3312
    x1015            OBJ                            30 c1                           1395
    x1015            c2                           2558 c3                           3866
    x1015            c4                            311 c5                           2051
    x1015            c6                           2103 c7                           2478
    x1015            c8                           3938
    x1016            OBJ                           140 c1                           4006
    x1016            c2                           2582 c3                           2384
    x1016            c4                           2066 c5                            950
    x1016            c6                           3358 c7                           1027
    x1016            c8                           3244
    x1017            OBJ                            75 c1                             56
    x1017            c2                           1898 c3                            833
    x1017            c4                           2893 c5                            248
    x1017            c6                            614 c7                           3325
    x1017            c8                            757 c110801                         1
    x1017            c110802                         1 c110803                         1
    x1017            c110804                         1 c110805                         1
    x1017            c110806                         1 c110807                         1
    x1017            c110808                         1 c110809                         1
    x1017            c110810                         1 c110811                         1
    x1017            c110812                         1 c110813                         1
    x1017            c110814                         1 c110815                         1
    x1017            c110816                         1 c110817                         1
    x1017            c110818                         1 c110819                         1
    x1017            c110820                         1 c110821                         1
    x1017            c110822                         1 c110823                         1
    x1017            c110824                         1 c110825                         1
    x1017            c110826                         1 c110827                         1
    x1017            c110828                         1 c110829                         1
    x1017            c110830                         1 c110831                         1
    x1017            c110832                         1
    MARK0001  'MARKER'                 'INTEND'
RHS
    RHS1              c1                              0
    RHS1              c2                              0
    RHS1              c3                              0
    RHS1              c4                              0
    RHS1              c5                              0
    RHS1              c6                              0
    RHS1              c7                              0
    RHS1              c8                              0
    RHS1              c110801                         0
    RHS1              c110802                         0
    RHS1              c110803                         0
    RHS1              c110804                         0
    RHS1              c110805                         0
    RHS1              c110806                         0
    RHS1              c110807                         0
    RHS1              c110808                         0
    RHS1              c110809                         0
    RHS1              c110810                         0
    RHS1              c110811                         0
    RHS1              c110812                         0
    RHS1              c110813                         0
    RHS1              c110814                         0
    RHS1              c110815                         0
    RHS1              c110816                         0
    RHS1              c110817                         0
    RHS1              c110818                         0
    RHS1              c110819                         0
    RHS1              c110820                         0
    RHS1              c110821                         0
    RHS1              c110822                         0
    RHS1              c110823                         0
    RHS1              c110824                         0
    RHS1              c110825                         0
    RHS1              c110826                         0
    RHS1              c110827                         0
    RHS1              c110828                         0
    RHS1              c110829                         0
    RHS1              c110830                         0
    RHS1              c110831                         0
    RHS1              c110832                         0
BOUNDS
 BV BND1              x1000
 BV BND1              x1001
 BV BND1              x1002
 BV BND1              x1003
 BV BND1              x1004
 BV BND1              x1005
 BV BND1              x1006
 BV BND1              x1007
 BV BND1              x1008
 BV BND1              x1009
 BV BND1              x1010
 BV BND1              x1011
 BV BND1              x1012
 BV BND1              x1013
 BV BND1              x1014
 BV BND1              x1015
 BV BND1              x1016
 BV BND1              x1017
ENDATA
