NAME          istanbul-no-cutoff_ds
OBJSENSE
 MIN
ROWS
 N  OBJ
 L  budget
 G  pbc_pb_12_18_20.050_0001_L0
 G  pbc_pb_12_18_20.050_0001_L1
 L  pbc_pb_12_18_20.050_0001_U0
 L  pbc_pb_12_18_20.050_0001_U1
 G  pbc_pb_12_18_20.050_0002_L0
 G  pbc_pb_12_18_20.050_0002_L1
 L  pbc_pb_12_18_20.050_0002_U0
 L  pbc_pb_12_18_20.050_0002_U1
 G  pbc_pb_12_18_20.050_0003_L0
 G  pbc_pb_12_18_20.050_0003_L1
 L  pbc_pb_12_18_20.050_0003_U0
 L  pbc_pb_12_18_20.050_0003_U1
 G  pbc_pb_12_18_20.050_0004_L0
 G  pbc_pb_12_18_20.050_0004_L1
 L  pbc_pb_12_18_20.050_0004_U0
 L  pbc_pb_12_18_20.050_0004_U1
 G  pbc_pb_12_18_20.050_0005_L0
 G  pbc_pb_12_18_20.050_0005_L1
 L  pbc_pb_12_18_20.050_0005_U0
 L  pbc_pb_12_18_20.050_0005_U1
 G  pbc_pb_12_18_20.050_0006_L0
 G  pbc_pb_12_18_20.050_0006_L1
 L  pbc_pb_12_18_20.050_0006_U0
 L  pbc_pb_12_18_20.050_0006_U1
 G  pbc_pb_12_18_20.050_0007_L0
 G  pbc_pb_12_18_20.050_0007_L1
 L  pbc_pb_12_18_20.050_0007_U0
 L  pbc_pb_12_18_20.050_0007_U1
 G  pbc_pb_12_18_20.240_0001_L0
 G  pbc_pb_12_18_20.240_0001_L1
 L  pbc_pb_12_18_20.240_0001_U0
 L  pbc_pb_12_18_20.240_0001_U1
 G  pbc_pb_12_18_20.240_0002_L0
 G  pbc_pb_12_18_20.240_0002_L1
 L  pbc_pb_12_18_20.240_0002_U0
 L  pbc_pb_12_18_20.240_0002_U1
 G  pbc_pb_12_18_20.240_0003_L0
 G  pbc_pb_12_18_20.240_0003_L1
 L  pbc_pb_12_18_20.240_0003_U0
COLUMNS
    MARK0000  'MARKER'                 'INTORG'
    x_10_8           OBJ                             0 budget                        160
    x_5_8            OBJ                             0 budget                        420
    x_9_11           OBJ                             0 budget                        620
    x_9_11           pbc_pb_12_18_20.050_0007_L0                1 pbc_pb_12_18_20.050_0007_L1               -1
    x_9_11           pbc_pb_12_18_20.050_0007_U0               -1 pbc_pb_12_18_20.050_0007_U1                1
    x_13_11          OBJ                             0 budget                        940
    x_13_11          pbc_pb_12_18_20.050_0003_L0                1 pbc_pb_12_18_20.050_0003_L1               -1
    x_13_11          pbc_pb_12_18_20.050_0003_U0               -1 pbc_pb_12_18_20.050_0003_U1                1
    x_5_10           OBJ                             0 budget                        160
    x_7_10           OBJ                             0 budget                        120
    x_13_12          OBJ                             0 budget                        300
    x_13_12          pbc_pb_12_18_20.050_0001_L0                1 pbc_pb_12_18_20.050_0001_L1               -1
    x_13_12          pbc_pb_12_18_20.050_0001_U0               -1 pbc_pb_12_18_20.050_0001_U1                1
    x_13_12          pbc_pb_12_18_20.240_0002_L0                1 pbc_pb_12_18_20.240_0002_L1               -1
    x_13_12          pbc_pb_12_18_20.240_0002_U0               -1 pbc_pb_12_18_20.240_0002_U1                1
    x_13_12          pbc_pb_12_18_20.240_0003_L0                1 pbc_pb_12_18_20.240_0003_L1               -1
    x_13_12          pbc_pb_12_18_20.240_0003_U0               -1
    x_21_18          OBJ                             0 budget                        780
    x_21_18          pbc_pb_12_18_20.240_0001_L0                1 pbc_pb_12_18_20.240_0001_L1               -1
    x_21_18          pbc_pb_12_18_20.240_0001_U0               -1 pbc_pb_12_18_20.240_0001_U1                1
    x_13_14          OBJ                             0 budget                        800
    x_13_14          pbc_pb_12_18_20.050_0005_L0                1 pbc_pb_12_18_20.050_0005_L1               -1
    x_13_14          pbc_pb_12_18_20.050_0005_U0               -1 pbc_pb_12_18_20.050_0005_U1                1
    x_5_3            OBJ                             0 budget                        260
    x_7_11           OBJ                             0 budget                        340
    x_4_3            OBJ                             0 budget                        320
    x_9_12           OBJ                             0 budget                       1180
    x_9_12           pbc_pb_12_18_20.050_0006_L0                1 pbc_pb_12_18_20.050_0006_L1               -1
    x_9_12           pbc_pb_12_18_20.050_0006_U0               -1 pbc_pb_12_18_20.050_0006_U1                1
    x_4_6            OBJ                             0 budget                        160
    x_16_12          OBJ                             0 budget                        520
    x_17_21          OBJ                             0 budget                        620
    x_15_18          OBJ                             0 budget                        160
    x_15_18          pbc_pb_12_18_20.050_0002_L0                1 pbc_pb_12_18_20.050_0002_L1               -1
    x_15_18          pbc_pb_12_18_20.050_0002_U0               -1 pbc_pb_12_18_20.050_0002_U1                1
    x_15_14          OBJ                             0 budget                         40
    x_15_14          pbc_pb_12_18_20.050_0004_L0                1 pbc_pb_12_18_20.050_0004_L1               -1
    x_15_14          pbc_pb_12_18_20.050_0004_U0               -1 pbc_pb_12_18_20.050_0004_U1                1
    MARK0001  'MARKER'                 'INTEND'
RHS
    RHS1              budget                          0
    RHS1              pbc_pb_12_18_20.050_0001_L0                0
    RHS1              pbc_pb_12_18_20.050_0001_L1                0
    RHS1              pbc_pb_12_18_20.050_0001_U0                0
    RHS1              pbc_pb_12_18_20.050_0001_U1                0
    RHS1              pbc_pb_12_18_20.050_0002_L0                0
    RHS1              pbc_pb_12_18_20.050_0002_L1                0
    RHS1              pbc_pb_12_18_20.050_0002_U0                0
    RHS1              pbc_pb_12_18_20.050_0002_U1                0
    RHS1              pbc_pb_12_18_20.050_0003_L0                0
    RHS1              pbc_pb_12_18_20.050_0003_L1                0
    RHS1              pbc_pb_12_18_20.050_0003_U0                0
    RHS1              pbc_pb_12_18_20.050_0003_U1                0
    RHS1              pbc_pb_12_18_20.050_0004_L0                0
    RHS1              pbc_pb_12_18_20.050_0004_L1                0
    RHS1              pbc_pb_12_18_20.050_0004_U0                0
    RHS1              pbc_pb_12_18_20.050_0004_U1                0
    RHS1              pbc_pb_12_18_20.050_0005_L0                0
    RHS1              pbc_pb_12_18_20.050_0005_L1                0
    RHS1              pbc_pb_12_18_20.050_0005_U0                0
    RHS1              pbc_pb_12_18_20.050_0005_U1                0
    RHS1              pbc_pb_12_18_20.050_0006_L0                0
    RHS1              pbc_pb_12_18_20.050_0006_L1                0
    RHS1              pbc_pb_12_18_20.050_0006_U0                0
    RHS1              pbc_pb_12_18_20.050_0006_U1                0
    RHS1              pbc_pb_12_18_20.050_0007_L0                0
    RHS1              pbc_pb_12_18_20.050_0007_L1                0
    RHS1              pbc_pb_12_18_20.050_0007_U0                0
    RHS1              pbc_pb_12_18_20.050_0007_U1                0
    RHS1              pbc_pb_12_18_20.240_0001_L0                0
    RHS1              pbc_pb_12_18_20.240_0001_L1                0
    RHS1              pbc_pb_12_18_20.240_0001_U0                0
    RHS1              pbc_pb_12_18_20.240_0001_U1                0
    RHS1              pbc_pb_12_18_20.240_0002_L0                0
    RHS1              pbc_pb_12_18_20.240_0002_L1                0
    RHS1              pbc_pb_12_18_20.240_0002_U0                0
    RHS1              pbc_pb_12_18_20.240_0002_U1                0
    RHS1              pbc_pb_12_18_20.240_0003_L0                0
    RHS1              pbc_pb_12_18_20.240_0003_L1                0
    RHS1              pbc_pb_12_18_20.240_0003_U0                0
BOUNDS
 BV BND1              x_10_8
 BV BND1              x_5_8
 BV BND1              x_9_11
 BV BND1              x_13_11
 BV BND1              x_5_10
 BV BND1              x_7_10
 BV BND1              x_13_12
 BV BND1              x_21_18
 BV BND1              x_13_14
 BV BND1              x_5_3
 BV BND1              x_7_11
 BV BND1              x_4_3
 BV BND1              x_9_12
 BV BND1              x_4_6
 BV BND1              x_16_12
 BV BND1              x_17_21
 BV BND1              x_15_18
 BV BND1              x_15_14
ENDATA
