NAME          neos-2075418-temuka_ds
OBJSENSE
 MIN
ROWS
 N  OBJ
 G  R0086
 G  R13745
 G  R13746
 G  R13747
 G  R13748
 G  R13749
 G  R13750
 G  R13751
 G  R13752
 G  R13753
 G  R13754
 G  R13755
 G  R13756
 G  R13757
 G  R13758
 G  R13759
 G  R13760
 G  R13761
 G  R13762
 G  R13763
 G  R13764
 G  R13765
 G  R13766
 G  R13767
 G  R13768
 G  R13769
 G  R13770
 G  R13771
 G  R13772
 G  R13773
 G  R13774
 G  R13775
 G  R13776
 G  R13777
 G  R13778
 G  R13779
 G  R13780
 G  R13781
 G  R13782
 G  R13783
COLUMNS
    MARK0000  'MARKER'                 'INTORG'
    C100149          OBJ                             0
    C100150          OBJ                             0
    C100151          OBJ                             0
    C100152          OBJ                             0
    C100153          OBJ                             0
    C100357          OBJ                             0
    C100358          OBJ                             0
    C100359          OBJ                             0
    C100565          OBJ                             0
    C109509          OBJ                             0 R0086                           1
    C109509          R13745                          1 R13746                          1
    C109509          R13747                          1 R13748                          1
    C109509          R13749                          1 R13750                          1
    C109509          R13751                          1 R13752                          1
    C109509          R13753                          1 R13754                          1
    C109509          R13755                          1 R13756                          1
    C109509          R13757                          1 R13758                          1
    C109509          R13759                          1 R13760                          1
    C109509          R13761                          1 R13762                          1
    C109509          R13763                          1 R13764                          1
    C109509          R13765                          1 R13766                          1
    C109509          R13767                          1 R13768                          1
    C109509          R13769                          1 R13770                          1
    C109509          R13771                          1 R13772                          1
    C109509          R13773                          1 R13774                          1
    C109509          R13775                          1 R13776                          1
    C109509          R13777                          1 R13778                          1
    C109509          R13779                          1 R13780                          1
    C109509          R13781                          1 R13782                          1
    C109509          R13783                          1
    C109510          OBJ                             0 R0086                           1
    C109510          R13745                          1 R13746                          1
    C109510          R13747                          1 R13748                          1
    C109510          R13749                          1 R13750                          1
    C109510          R13751                          1 R13752                          1
    C109510          R13753                          1 R13754                          1
    C109510          R13755                          1 R13756                          1
    C109510          R13757                          1 R13758                          1
    C109510          R13759                          1 R13760                          1
    C109510          R13761                          1 R13762                          1
    C109510          R13763                          1 R13764                          1
    C109510          R13765                          1 R13766                          1
    C109510          R13767                          1 R13768                          1
    C109510          R13769                          1 R13770                          1
    C109510          R13771                          1 R13772                          1
    C109510          R13773                          1 R13774                          1
    C109510          R13775                          1 R13776                          1
    C109510          R13777                          1 R13778                          1
    C109510          R13779                          1 R13780                          1
    C109510          R13781                          1 R13782                          1
    C109510          R13783                          1
    C109511          OBJ                             0 R0086                           1
    C109511          R13745                          1 R13746                          1
    C109511          R13747                          1 R13748                          1
    C109511          R13749                          1 R13750                          1
    C109511          R13751                          1 R13752                          1
    C109511          R13753                          1 R13754                          1
    C109511          R13755                          1 R13756                          1
    C109511          R13757                          1 R13758                          1
    C109511          R13759                          1 R13760                          1
    C109511          R13761                          1 R13762                          1
    C109511          R13763                          1 R13764                          1
    C109511          R13765                          1 R13766                          1
    C109511          R13767                          1 R13768                          1
    C109511          R13769                          1 R13770                          1
    C109511          R13771                          1 R13772                          1
    C109511          R13773                          1 R13774                          1
    C109511          R13775                          1 R13776                          1
    C109511          R13777                          1 R13778                          1
    C109511          R13779                          1 R13780                          1
    C109511          R13781                          1 R13782                          1
    C109511          R13783                          1
    C109512          OBJ                             0 R0086                           1
    C109512          R13745                          1 R13746                          1
    C109512          R13747                          1 R13748                          1
    C109512          R13749                          1 R13750                          1
    C109512          R13751                          1 R13752                          1
    C109512          R13753                          1 R13754                          1
    C109512          R13755                          1 R13756                          1
    C109512          R13757                          1 R13758                          1
    C109512          R13759                          1 R13760                          1
    C109512          R13761                          1 R13762                          1
    C109512          R13763                          1 R13764                          1
    C109512          R13765                          1 R13766                          1
    C109512          R13767                          1 R13768                          1
    C109512          R13769                          1 R13770                          1
    C109512          R13771                          1 R13772                          1
    C109512          R13773                          1 R13774                          1
    C109512          R13775                          1 R13776                          1
    C109512          R13777                          1 R13778                          1
    C109512          R13779                          1 R13780                          1
    C109512          R13781                          1 R13782                          1
    C109512          R13783                          1
    C109513          OBJ                             0 R0086                           1
    C109513          R13745                          1 R13746                          1
    C109513          R13747                          1 R13748                          1
    C109513          R13749                          1 R13750                          1
    C109513          R13751                          1 R13752                          1
    C109513          R13753                          1 R13754                          1
    C109513          R13755                          1 R13756                          1
    C109513          R13757                          1 R13758                          1
    C109513          R13759                          1 R13760                          1
    C109513          R13761                          1 R13762                          1
    C109513          R13763                          1 R13764                          1
    C109513          R13765                          1 R13766                          1
    C109513          R13767                          1 R13768                          1
    C109513          R13769                          1 R13770                          1
    C109513          R13771                          1 R13772                          1
    C109513          R13773                          1 R13774                          1
    C109513          R13775                          1 R13776                          1
    C109513          R13777                          1 R13778                          1
    C109513          R13779                          1 R13780                          1
    C109513          R13781                          1 R13782                          1
    C109513          R13783                          1
    C109514          OBJ                             0 R0086                           1
    C109514          R13745                          1 R13746                          1
    C109514          R13747                          1 R13748                          1
    C109514          R13749                          1 R13750                          1
    C109514          R13751                          1 R13752                          1
    C109514          R13753                          1 R13754                          1
    C109514          R13755                          1 R13756                          1
    C109514          R13757                          1 R13758                          1
    C109514          R13759                          1 R13760                          1
    C109514          R13761                          1 R13762                          1
    C109514          R13763                          1 R13764                          1
    C109514          R13765                          1 R13766                          1
    C109514          R13767                          1 R13768                          1
    C109514          R13769                          1 R13770                          1
    C109514          R13771                          1 R13772                          1
    C109514          R13773                          1 R13774                          1
    C109514          R13775                          1 R13776                          1
    C109514          R13777                          1 R13778                          1
    C109514          R13779                          1 R13780                          1
    C109514          R13781                          1 R13782                          1
    C109514          R13783                          1
    C109515          OBJ                             0 R0086                           1
    C109515          R13745                          1 R13746                          1
    C109515          R13747                          1 R13748                          1
    C109515          R13749                          1 R13750                          1
    C109515          R13751                          1 R13752                          1
    C109515          R13753                          1 R13754                          1
    C109515          R13755                          1 R13756                          1
    C109515          R13757                          1 R13758                          1
    C109515          R13759                          1 R13760                          1
    C109515          R13761                          1 R13762                          1
    C109515          R13763                          1 R13764                          1
    C109515          R13765                          1 R13766                          1
    C109515          R13767                          1 R13768                          1
    C109515          R13769                          1 R13770                          1
    C109515          R13771                          1 R13772                          1
    C109515          R13773                          1 R13774                          1
    C109515          R13775                          1 R13776                          1
    C109515          R13777                          1 R13778                          1
    C109515          R13779                          1 R13780                          1
    C109515          R13781                          1 R13782                          1
    C109515          R13783                          1
    C109516          OBJ                             0 R0086                           1
    C109516          R13745                          1 R13746                          1
    C109516          R13747                          1 R13748                          1
    C109516          R13749                          1 R13750                          1
    C109516          R13751                          1 R13752                          1
    C109516          R13753                          1 R13754                          1
    C109516          R13755                          1 R13756                          1
    C109516          R13757                          1 R13758                          1
    C109516          R13759                          1 R13760                          1
    C109516          R13761                          1 R13762                          1
    C109516          R13763                          1 R13764                          1
    C109516          R13765                          1 R13766                          1
    C109516          R13767                          1 R13768                          1
    C109516          R13769                          1 R13770                          1
    C109516          R13771                          1 R13772                          1
    C109516          R13773                          1 R13774                          1
    C109516          R13775                          1 R13776                          1
    C109516          R13777                          1 R13778                          1
    C109516          R13779                          1 R13780                          1
    C109516          R13781                          1 R13782                          1
    C109516          R13783                          1
    C109717          OBJ                             0
    MARK0001  'MARKER'                 'INTEND'
RHS
    RHS1              R0086                           1
    RHS1              R13745                          1
    RHS1              R13746                          1
    RHS1              R13747                          1
    RHS1              R13748                          1
    RHS1              R13749                          1
    RHS1              R13750                          1
    RHS1              R13751                          1
    RHS1              R13752                          1
    RHS1              R13753                          1
    RHS1              R13754                          1
    RHS1              R13755                          1
    RHS1              R13756                          1
    RHS1              R13757                          1
    RHS1              R13758                          1
    RHS1              R13759                          1
    RHS1              R13760                          1
    RHS1              R13761                          1
    RHS1              R13762                          1
    RHS1              R13763                          1
    RHS1              R13764                          1
    RHS1              R13765                          1
    RHS1              R13766                          1
    RHS1              R13767                          1
    RHS1              R13768                          1
    RHS1              R13769                          1
    RHS1              R13770                          1
    RHS1              R13771                          1
    RHS1              R13772                          1
    RHS1              R13773                          1
    RHS1              R13774                          1
    RHS1              R13775                          1
    RHS1              R13776                          1
    RHS1              R13777                          1
    RHS1              R13778                          1
    RHS1              R13779                          1
    RHS1              R13780                          1
    RHS1              R13781                          1
    RHS1              R13782                          1
    RHS1              R13783                          1
BOUNDS
 BV BND1              C100149
 BV BND1              C100150
 BV BND1              C100151
 BV BND1              C100152
 BV BND1              C100153
 BV BND1              C100357
 BV BND1              C100358
 BV BND1              C100359
 BV BND1              C100565
 BV BND1              C109509
 BV BND1              C109510
 BV BND1              C109511
 BV BND1              C109512
 BV BND1              C109513
 BV BND1              C109514
 BV BND1              C109515
 BV BND1              C109516
 BV BND1              C109717
ENDATA
