NAME          mas76_ds
OBJSENSE
 MIN
ROWS
 N  OBJ
 L  c1
 G  c10
 G  c11
 G  c12
 G  c2
 G  c3
 G  c4
 G  c5
 G  c6
 G  c7
 G  c8
 G  c9
COLUMNS
    MARK0000  'MARKER'                 'INTORG'
    x1               OBJ                             0 c1                              1
    x1               c10                          4264 c11                   3.47067e+09
    x1               c12                   1.98276e+06 c2                    3.28662e+06
    x1               c3                      4.264e+09 c4                    1.85484e+06
    x1               c5                     4.2043e+06 c6                    4.24268e+06
    x1               c7                    1.01722e+08 c8                    3.12063e+09
    x1               c9                         533000
    x100             OBJ                             0 c1                              1
    x100             c10                          3974 c11                   3.23463e+09
    x100             c12                   1.84791e+06 c2                    3.38585e+06
    x100             c3                      3.974e+09 c4                    1.72869e+06
    x100             c5                    3.91836e+06 c6                    3.95413e+06
    x100             c7                    9.48037e+07 c8                    2.90839e+09
    x100             c9                         496750
    x101             OBJ                             0 c1                              1
    x101             c10                          3624 c11                   2.94974e+09
    x101             c12                   1.68516e+06 c2                    3.08765e+06
    x101             c3                      3.624e+09 c4                    1.57644e+06
    x101             c5                    3.57326e+06 c6                    3.60588e+06
    x101             c7                    8.64541e+07 c8                    2.65224e+09
    x101             c9                         453000
    x102             OBJ                             0 c1                              1
    x102             c10                          5415 c11                   4.40752e+09
    x102             c12                   2.51798e+06 c2                    4.61358e+06
    x102             c3                      5.415e+09 c4                    2.35552e+06
    x102             c5                    5.33919e+06 c6                    5.38792e+06
    x102             c7                     1.2918e+08 c8                    3.96299e+09
    x102             c9                         676875
    x103             OBJ                             0 c1                              1
    x103             c10                          2246 c11                   1.82812e+09
    x103             c12                   1.04439e+06 c2                    1.91359e+06
    x103             c3                    1.99761e+09 c4                         977010
    x103             c5                    1.55985e+06 c6                    2.23477e+06
    x103             c7                    5.35806e+07 c8                    1.64375e+09
    x103             c9                         280750
    x105             OBJ                             0 c1                              1
    x105             c10                          2633 c11                   2.14312e+09
    x105             c12                   1.22434e+06 c2                    2.24332e+06
    x105             c3                    2.37314e+09 c4                    1.14536e+06
    x105             c5                    2.59614e+06 c6                    2.61984e+06
    x105             c7                    6.28128e+07 c8                    1.92697e+09
    x105             c9                         329125
    x106             OBJ                             0 c1                              1
    x106             c10                          4655 c11                   3.78892e+09
    x106             c12                   2.16458e+06 c2                    3.96606e+06
    x106             c3                      4.655e+09 c4                    2.02492e+06
    x106             c5                    4.58983e+06 c6                    4.63172e+06
    x106             c7                     1.1105e+08 c8                    3.40679e+09
    x106             c9                         581875
    x107             OBJ                             0 c1                              1
    x107             c10                          2923 c11                   2.37917e+09
    x107             c12                    1.3592e+06 c2                     2.4904e+06
    x107             c3                      2.923e+09 c4                     1.2715e+06
    x107             c5                    2.88208e+06 c6                    2.90838e+06
    x107             c7                    6.97311e+07 c8                    2.13921e+09
    x107             c9                         365375
    x11              OBJ                             0 c1                              1
    x11              c10                          1239 c11                   1.00848e+09
    x11              c12                        576135 c2                    1.05563e+06
    x11              c3                      1.239e+09 c4                         538965
    x11              c5                    1.22165e+06 c6                     1.2328e+06
    x11              c7                    2.95576e+07 c8                    9.06768e+08
    x11              c9                         154875
    x110             OBJ                             0 c1                              1
    x110             c10                          4579 c11                   3.72706e+09
    x110             c12                   2.12924e+06 c2                    3.90131e+06
    x110             c3                      4.579e+09 c4                    1.99186e+06
    x110             c5                    4.51489e+06 c6                     4.5561e+06
    x110             c7                    1.09237e+08 c8                    3.35116e+09
    x110             c9                         572375
    x113             OBJ                             0 c1                              1
    x113             c10                          6268 c11                   2.55857e+09
    x113             c12                   2.91462e+06 c2                    5.34034e+06
    x113             c3                      6.268e+09 c4                    2.19675e+06
    x113             c5                    6.18025e+06 c6                    6.23666e+06
    x113             c7                    2.35644e+07 c8                    4.58727e+09
    x113             c9                         783500
    x116             OBJ                             0 c1                              1
    x116             c10                          4876 c11                   3.96881e+09
    x116             c12                   2.26734e+06 c2                    4.15435e+06
    x116             c3                      4.876e+09 c4                    2.12106e+06
    x116             c5                    4.80774e+06 c6                    4.85162e+06
    x116             c7                    1.16322e+08 c8                    1.22794e+09
    x116             c9                         609500
    x117             OBJ                             0 c1                              1
    x117             c10                          9861 c11                   3.65169e+09
    x117             c12                        197872 c2                         356394
    x117             c3                    6.80073e+09 c4                         628456
    x117             c5                     4.3765e+06 c6                    4.35458e+06
    x117             c7                    1.40667e+08 c8                     1.7565e+09
    x117             c9                         507000
    x118             OBJ                             0 c1                              1
    x118             c10                          4922 c11                   4.00625e+09
    x118             c12                   2.28873e+06 c2                    4.19354e+06
    x118             c3                      4.922e+09 c4                    2.14107e+06
    x118             c5                    4.85309e+06 c6                    3.57205e+06
    x118             c7                    1.17419e+08 c8                    3.60219e+09
    x118             c9                         416625
    x119             OBJ                             0 c1                              1
    x119             c10                          3590 c11                   2.92207e+09
    x119             c12                   1.66935e+06 c2                    3.05868e+06
    x119             c3                       3.59e+09 c4                    1.56165e+06
    x119             c5                    3.53974e+06 c6                    3.57205e+06
    x119             c7                     8.5643e+07 c8                    2.62736e+09
    x119             c9                         448750
    x121             OBJ                             0 c1                              1
    x121             c10                          7056 c11                   5.74321e+09
    x121             c12                   3.28104e+06 c2                    6.01171e+06
    x121             c3                      7.056e+09 c4                         350175
    x121             c5                    6.95722e+06 c6                    7.02072e+06
    x121             c7                    1.68328e+08 c8                    5.16397e+09
    x121             c9                         835592
    x126             OBJ                             0 c1                              1
    x126             c10                          2933 c11                   2.38731e+09
    x126             c12                   1.36384e+06 c2                    2.49892e+06
    x126             c3                      2.933e+09 c4                    1.27586e+06
    x126             c5                    2.89194e+06 c6                    2.91834e+06
    x126             c7                    6.99696e+07 c8                    2.14653e+09
    x126             c9                         366625
    x127             OBJ                             0 c1                              1
    x127             c10                          2665 c11                   2.16917e+09
    x127             c12                   1.23922e+06 c2                    2.27058e+06
    x127             c3                      2.665e+09 c4                    1.15928e+06
    x127             c5                    2.62769e+06 c6                    2.65168e+06
    x127             c7                    6.35762e+07 c8                    1.95039e+09
    x127             c9                         333125
    MARK0001  'MARKER'                 'INTEND'
RHS
    RHS1              c1                              0
    RHS1              c10                             0
    RHS1              c11                             0
    RHS1              c12                             0
    RHS1              c2                              0
    RHS1              c3                              0
    RHS1              c4                              0
    RHS1              c5                              0
    RHS1              c6                              0
    RHS1              c7                              0
    RHS1              c8                              0
    RHS1              c9                              0
BOUNDS
 BV BND1              x1
 BV BND1              x100
 BV BND1              x101
 BV BND1              x102
 BV BND1              x103
 BV BND1              x105
 BV BND1              x106
 BV BND1              x107
 BV BND1              x11
 BV BND1              x110
 BV BND1              x113
 BV BND1              x116
 BV BND1              x117
 BV BND1              x118
 BV BND1              x119
 BV BND1              x121
 BV BND1              x126
 BV BND1              x127
ENDATA
