NAME          rail02_ds
OBJSENSE
 MIN
ROWS
 N  OBJ
 L  c93351
 L  c93352
 L  c93353
 L  c93354
 L  c93355
 L  c93356
 L  c93357
 L  c93358
 L  c93359
 L  c93360
 L  c93361
 L  c93362
 L  c93363
 L  c93364
 L  c93365
 L  c93366
 L  c93367
 L  c93368
 L  c93346
 L  c93347
 L  c93348
 L  c93349
 L  c93350
 L  c93369
 L  c93370
 L  c93371
 L  c93372
 L  c93373
 L  c93341
 L  c93342
 L  c93343
 L  c93344
 L  c93345
 L  c93374
 L  c93375
 L  c93376
 L  c93377
 L  c93378
 L  c93181
 L  c93182
COLUMNS
    MARK0000  'MARKER'                 'INTORG'
    x10967           OBJ                             0 c93181                          1
    x10967           c93182                          1
    x10976           OBJ                             0 c93181                          1
    x10976           c93182                          1
    x10985           OBJ                             0 c93181                          1
    x10985           c93182                          1
    x10994           OBJ                             0 c93181                          1
    x10994           c93182                          1
    x11003           OBJ                             0 c93181                          1
    x11003           c93182                          1
    x11241           OBJ                             0
    x11250           OBJ                             0
    x11259           OBJ                             0
    x11268           OBJ                             0
    x11277           OBJ                             0
    x12306           OBJ                             0 c93351                          1
    x12306           c93352                          1 c93353                          1
    x12306           c93354                          1 c93355                          1
    x12306           c93356                          1 c93357                          1
    x12306           c93358                          1 c93359                          1
    x12306           c93360                          1 c93361                          1
    x12306           c93362                          1 c93363                          1
    x12306           c93364                          1 c93365                          1
    x12306           c93366                          1 c93367                          1
    x12306           c93368                          1 c93346                          1
    x12306           c93347                          1 c93348                          1
    x12306           c93349                          1 c93350                          1
    x12306           c93341                          1 c93342                          1
    x12306           c93343                          1 c93344                          1
    x12306           c93345                          1
    x12315           OBJ                             0 c93351                          1
    x12315           c93352                          1 c93353                          1
    x12315           c93354                          1 c93355                          1
    x12315           c93356                          1 c93357                          1
    x12315           c93358                          1 c93359                          1
    x12315           c93360                          1 c93361                          1
    x12315           c93362                          1 c93363                          1
    x12315           c93364                          1 c93365                          1
    x12315           c93366                          1 c93367                          1
    x12315           c93368                          1 c93346                          1
    x12315           c93347                          1 c93348                          1
    x12315           c93349                          1 c93350                          1
    x12315           c93369                          1 c93370                          1
    x12315           c93371                          1 c93372                          1
    x12315           c93373                          1 c93341                          1
    x12315           c93342                          1 c93343                          1
    x12315           c93344                          1 c93345                          1
    x12324           OBJ                             0 c93351                          1
    x12324           c93352                          1 c93353                          1
    x12324           c93354                          1 c93355                          1
    x12324           c93356                          1 c93357                          1
    x12324           c93358                          1 c93359                          1
    x12324           c93360                          1 c93361                          1
    x12324           c93362                          1 c93363                          1
    x12324           c93364                          1 c93365                          1
    x12324           c93366                          1 c93367                          1
    x12324           c93368                          1 c93346                          1
    x12324           c93347                          1 c93348                          1
    x12324           c93349                          1 c93350                          1
    x12324           c93369                          1 c93370                          1
    x12324           c93371                          1 c93372                          1
    x12324           c93373                          1 c93341                          1
    x12324           c93342                          1 c93343                          1
    x12324           c93344                          1 c93345                          1
    x12324           c93374                          1 c93375                          1
    x12324           c93376                          1 c93377                          1
    x12324           c93378                          1
    x12333           OBJ                             0 c93351                          1
    x12333           c93352                          1 c93353                          1
    x12333           c93354                          1 c93355                          1
    x12333           c93356                          1 c93357                          1
    x12333           c93358                          1 c93359                          1
    x12333           c93360                          1 c93361                          1
    x12333           c93362                          1 c93363                          1
    x12333           c93364                          1 c93365                          1
    x12333           c93366                          1 c93367                          1
    x12333           c93368                          1 c93346                          1
    x12333           c93347                          1 c93348                          1
    x12333           c93349                          1 c93350                          1
    x12333           c93369                          1 c93370                          1
    x12333           c93371                          1 c93372                          1
    x12333           c93373                          1 c93341                          1
    x12333           c93342                          1 c93343                          1
    x12333           c93344                          1 c93345                          1
    x12333           c93374                          1 c93375                          1
    x12333           c93376                          1 c93377                          1
    x12333           c93378                          1
    x12342           OBJ                             0 c93351                          1
    x12342           c93352                          1 c93353                          1
    x12342           c93354                          1 c93355                          1
    x12342           c93356                          1 c93357                          1
    x12342           c93358                          1 c93359                          1
    x12342           c93360                          1 c93361                          1
    x12342           c93362                          1 c93363                          1
    x12342           c93364                          1 c93365                          1
    x12342           c93366                          1 c93367                          1
    x12342           c93368                          1 c93346                          1
    x12342           c93347                          1 c93348                          1
    x12342           c93349                          1 c93350                          1
    x12342           c93369                          1 c93370                          1
    x12342           c93371                          1 c93372                          1
    x12342           c93373                          1 c93341                          1
    x12342           c93342                          1 c93343                          1
    x12342           c93344                          1 c93345                          1
    x12342           c93374                          1 c93375                          1
    x12342           c93376                          1 c93377                          1
    x12342           c93378                          1
    x12351           OBJ                             0 c93351                          1
    x12351           c93352                          1 c93353                          1
    x12351           c93354                          1 c93355                          1
    x12351           c93356                          1 c93357                          1
    x12351           c93358                          1 c93359                          1
    x12351           c93360                          1 c93361                          1
    x12351           c93362                          1 c93363                          1
    x12351           c93364                          1 c93365                          1
    x12351           c93366                          1 c93367                          1
    x12351           c93368                          1 c93346                          1
    x12351           c93347                          1 c93348                          1
    x12351           c93349                          1 c93350                          1
    x12351           c93369                          1 c93370                          1
    x12351           c93371                          1 c93372                          1
    x12351           c93373                          1 c93341                          1
    x12351           c93342                          1 c93343                          1
    x12351           c93344                          1 c93345                          1
    x12351           c93374                          1 c93375                          1
    x12351           c93376                          1 c93377                          1
    x12351           c93378                          1
    x12360           OBJ                             0 c93351                          1
    x12360           c93352                          1 c93353                          1
    x12360           c93354                          1 c93355                          1
    x12360           c93356                          1 c93357                          1
    x12360           c93358                          1 c93359                          1
    x12360           c93360                          1 c93361                          1
    x12360           c93362                          1 c93363                          1
    x12360           c93364                          1 c93365                          1
    x12360           c93366                          1 c93367                          1
    x12360           c93368                          1 c93346                          1
    x12360           c93347                          1 c93348                          1
    x12360           c93349                          1 c93350                          1
    x12360           c93369                          1 c93370                          1
    x12360           c93371                          1 c93372                          1
    x12360           c93373                          1 c93374                          1
    x12360           c93375                          1 c93376                          1
    x12360           c93377                          1 c93378                          1
    x12369           OBJ                             0 c93351                          1
    x12369           c93352                          1 c93353                          1
    x12369           c93354                          1 c93355                          1
    x12369           c93356                          1 c93357                          1
    x12369           c93358                          1 c93359                          1
    x12369           c93360                          1 c93361                          1
    x12369           c93362                          1 c93363                          1
    x12369           c93364                          1 c93365                          1
    x12369           c93366                          1 c93367                          1
    x12369           c93368                          1 c93369                          1
    x12369           c93370                          1 c93371                          1
    x12369           c93372                          1 c93373                          1
    x12369           c93374                          1 c93375                          1
    x12369           c93376                          1 c93377                          1
    x12369           c93378                          1
    MARK0001  'MARKER'                 'INTEND'
RHS
    RHS1              c93351                          0
    RHS1              c93352                          0
    RHS1              c93353                          0
    RHS1              c93354                          0
    RHS1              c93355                          0
    RHS1              c93356                          0
    RHS1              c93357                          0
    RHS1              c93358                          0
    RHS1              c93359                          0
    RHS1              c93360                          0
    RHS1              c93361                          0
    RHS1              c93362                          0
    RHS1              c93363                          0
    RHS1              c93364                          0
    RHS1              c93365                          0
    RHS1              c93366                          0
    RHS1              c93367                          0
    RHS1              c93368                          0
    RHS1              c93346                          0
    RHS1              c93347                          0
    RHS1              c93348                          0
    RHS1              c93349                          0
    RHS1              c93350                          0
    RHS1              c93369                          0
    RHS1              c93370                          0
    RHS1              c93371                          0
    RHS1              c93372                          0
    RHS1              c93373                          0
    RHS1              c93341                          0
    RHS1              c93342                          0
    RHS1              c93343                          0
    RHS1              c93344                          0
    RHS1              c93345                          0
    RHS1              c93374                          0
    RHS1              c93375                          0
    RHS1              c93376                          0
    RHS1              c93377                          0
    RHS1              c93378                          0
    RHS1              c93181                          0
    RHS1              c93182                          0
BOUNDS
 BV BND1              x10967
 BV BND1              x10976
 BV BND1              x10985
 BV BND1              x10994
 BV BND1              x11003
 BV BND1              x11241
 BV BND1              x11250
 BV BND1              x11259
 BV BND1              x11268
 BV BND1              x11277
 BV BND1              x12306
 BV BND1              x12315
 BV BND1              x12324
 BV BND1              x12333
 BV BND1              x12342
 BV BND1              x12351
 BV BND1              x12360
 BV BND1              x12369
ENDATA
