NAME          roi2alpha3n4_ds
OBJSENSE
 MIN
ROWS
 N  OBJ
 G  sdef_10091
 G  sdef_10129
 G  sdef_10155
 G  sdef_10156
 G  sdef_10180
 G  sdef_10321
 G  sdef_10322
 G  sdef_10415
 G  sdef_10483
 G  sdef_10497
 G  sdef_10498
 G  sdef_10499
 G  sdef_10501
 G  sdef_10549
 G  sdef_10550
 G  sdef_10551
 G  sdef_10552
 G  sdef_10578
 G  sdef_10613
 G  sdef_10614
 G  sdef_10817
 G  sdef_10836
 G  sdef_10837
 G  sdef_10853
 G  sdef_10927
 G  sdef_11098
 G  sdef_11167
 G  sdef_11376
 G  sdef_11503
 G  sdef_11552
 G  sdef_11733
 G  sdef_1241
 G  sdef_1242
 G  sdef_1243
 G  sdef_1244
COLUMNS
    MARK0000  'MARKER'                 'INTORG'
    z_148_153        OBJ                             0 sdef_10091                    438
    z_148_153        sdef_10129                  22186 sdef_10155                   4974
    z_148_153        sdef_10156                   6174 sdef_10180                    236
    z_148_153        sdef_10321                    443 sdef_10322                    785
    z_148_153        sdef_10415                     68 sdef_10483                    853
    z_148_153        sdef_10497                   3493 sdef_10498                   2063
    z_148_153        sdef_10499                   2174 sdef_10501                   5838
    z_148_153        sdef_10549                    209 sdef_10550                    100
    z_148_153        sdef_10551                     49 sdef_10552                    231
    z_148_153        sdef_10578                     12 sdef_10613                     10
    z_148_153        sdef_10614                      8 sdef_10817                     34
    z_148_153        sdef_10836                     86 sdef_10837                    191
    z_148_153        sdef_10853                     25 sdef_10927                   2776
    z_148_153        sdef_11098                     11 sdef_11167                   3337
    z_148_153        sdef_11376                    103 sdef_11503                   2272
    z_148_153        sdef_11733                    448 sdef_1241                    1207
    z_148_153        sdef_1242                     112 sdef_1243                    1520
    z_148_153        sdef_1244                     219
    z_148_155        OBJ                             0 sdef_10091                    296
    z_148_155        sdef_10129                   5701 sdef_10155                   2363
    z_148_155        sdef_10156                   2750 sdef_10180                    144
    z_148_155        sdef_10321                    138 sdef_10322                    224
    z_148_155        sdef_10415                     43 sdef_10483                    287
    z_148_155        sdef_10497                    952 sdef_10498                    565
    z_148_155        sdef_10499                    551 sdef_10501                   1364
    z_148_155        sdef_10549                     79 sdef_10550                     42
    z_148_155        sdef_10551                     21 sdef_10552                     83
    z_148_155        sdef_10578                      7 sdef_10613                      5
    z_148_155        sdef_10614                      4 sdef_10817                     14
    z_148_155        sdef_10836                     41 sdef_10837                     85
    z_148_155        sdef_10853                     17 sdef_10927                   1347
    z_148_155        sdef_11098                      7 sdef_11167                   1400
    z_148_155        sdef_11376                     37 sdef_11503                    746
    z_148_155        sdef_11733                    172 sdef_1241                     771
    z_148_155        sdef_1242                      64 sdef_1243                     572
    z_148_155        sdef_1244                     332
    z_148_260        OBJ                             0 sdef_10091                     64
    z_148_260        sdef_10129                   1233 sdef_10155                    128
    z_148_260        sdef_10156                    208 sdef_10180                     94
    z_148_260        sdef_10321                   8258 sdef_10322                  12254
    z_148_260        sdef_10415                     66 sdef_10483                   4179
    z_148_260        sdef_10497                   7731 sdef_10498                  10181
    z_148_260        sdef_10499                  16077 sdef_10501                  15982
    z_148_260        sdef_10549                   2515 sdef_10550                   1117
    z_148_260        sdef_10551                    910 sdef_10552                   3741
    z_148_260        sdef_10578                     81 sdef_10613                    340
    z_148_260        sdef_10614                    279 sdef_10817                   1674
    z_148_260        sdef_10836                    405 sdef_10837                    636
    z_148_260        sdef_10853                     37 sdef_10927                    191
    z_148_260        sdef_11098                     27 sdef_11167                    388
    z_148_260        sdef_11376                   4000 sdef_11503                   2792
    z_148_260        sdef_11552                     12 sdef_11733                   2019
    z_148_260        sdef_1241                      96 sdef_1242                     122
    z_148_260        sdef_1243                    1309 sdef_1244                       5
    z_148_261        OBJ                             0 sdef_10091                    251
    z_148_261        sdef_10129                   3582 sdef_10155                    419
    z_148_261        sdef_10156                    691 sdef_10180                    381
    z_148_261        sdef_10321                  27959 sdef_10322                  40599
    z_148_261        sdef_10415                    273 sdef_10483                  15546
    z_148_261        sdef_10497                  23620 sdef_10498                  30923
    z_148_261        sdef_10499                  42448 sdef_10501                  37611
    z_148_261        sdef_10549                  10229 sdef_10550                   4750
    z_148_261        sdef_10551                   3887 sdef_10552                  14708
    z_148_261        sdef_10578                    313 sdef_10613                   1113
    z_148_261        sdef_10614                    905 sdef_10817                   5915
    z_148_261        sdef_10836                   1773 sdef_10837                   2755
    z_148_261        sdef_10853                    149 sdef_10927                    673
    z_148_261        sdef_11098                    107 sdef_11167                   1367
    z_148_261        sdef_11376                  15375 sdef_11503                   9827
    z_148_261        sdef_11552                     39 sdef_11733                   8094
    z_148_261        sdef_1241                     360 sdef_1242                     516
    z_148_261        sdef_1243                    4973 sdef_1244                      20
    z_148_262        OBJ                             0 sdef_10091                    632
    z_148_262        sdef_10129                   5558 sdef_10155                    819
    z_148_262        sdef_10156                   1367 sdef_10180                   1024
    z_148_262        sdef_10321                  31763 sdef_10322                  42634
    z_148_262        sdef_10415                    768 sdef_10483                  26534
    z_148_262        sdef_10497                  30909 sdef_10498                  36407
    z_148_262        sdef_10499                  38789 sdef_10501                  34501
    z_148_262        sdef_10549                  19956 sdef_10550                  11042
    z_148_262        sdef_10551                   8748 sdef_10552                  25905
    z_148_262        sdef_10578                    723 sdef_10613                   1576
    z_148_262        sdef_10614                   1262 sdef_10817                   7581
    z_148_262        sdef_10836                   5131 sdef_10837                   7729
    z_148_262        sdef_10853                    396 sdef_10927                   1443
    z_148_262        sdef_11098                    268 sdef_11167                   2882
    z_148_262        sdef_11376                  20487 sdef_11503                  18028
    z_148_262        sdef_11552                     63 sdef_11733                  17368
    z_148_262        sdef_1241                     856 sdef_1242                    1495
    z_148_262        sdef_1243                   11011 sdef_1244                      48
    z_148_263        OBJ                             0 sdef_10091                   1696
    z_148_263        sdef_10129                   8038 sdef_10155                   1593
    z_148_263        sdef_10156                   2650 sdef_10180                   2992
    z_148_263        sdef_10321                  19578 sdef_10322                  23059
    z_148_263        sdef_10415                   2598 sdef_10483                  26510
    z_148_263        sdef_10497                  27384 sdef_10498                  26850
    z_148_263        sdef_10499                  23146 sdef_10501                  24374
    z_148_263        sdef_10549                  19235 sdef_10550                  14935
    z_148_263        sdef_10551                  10986 sdef_10552                  20818
    z_148_263        sdef_10578                   1923 sdef_10613                   1978
    z_148_263        sdef_10614                   1642 sdef_10817                   6091
    z_148_263        sdef_10836                  12947 sdef_10837                  17672
    z_148_263        sdef_10853                   1315 sdef_10927                   3015
    z_148_263        sdef_11098                    877 sdef_11167                   5630
    z_148_263        sdef_11376                  12739 sdef_11503                  23540
    z_148_263        sdef_11552                    100 sdef_11733                  22592
    z_148_263        sdef_1241                    2099 sdef_1242                    4929
    z_148_263        sdef_1243                   18338 sdef_1244                     127
    z_148_264        OBJ                             0 sdef_10091                   2011
    z_148_264        sdef_10129                   4852 sdef_10155                   1312
    z_148_264        sdef_10156                   2134 sdef_10180                   3616
    z_148_264        sdef_10321                   4857 sdef_10322                   5582
    z_148_264        sdef_10415                   3729 sdef_10483                   8231
    z_148_264        sdef_10497                   9244 sdef_10498                   7959
    z_148_264        sdef_10499                   6391 sdef_10501                   7831
    z_148_264        sdef_10549                   5213 sdef_10550                   4628
    z_148_264        sdef_10551                   3041 sdef_10552                   5044
    z_148_264        sdef_10578                   1654 sdef_10613                    836
    z_148_264        sdef_10614                    728 sdef_10817                   1664
    z_148_264        sdef_10836                   5983 sdef_10837                   7665
    z_148_264        sdef_10853                   1943 sdef_10927                   2549
    z_148_264        sdef_11098                   1293 sdef_11167                   4117
    z_148_264        sdef_11376                   2861 sdef_11503                   9509
    z_148_264        sdef_11552                     52 sdef_11733                   7872
    z_148_264        sdef_1241                    2220 sdef_1242                    5776
    z_148_264        sdef_1243                    8514 sdef_1244                     172
    z_148_265        OBJ                             0 sdef_10091                   2687
    z_148_265        sdef_10129                   4203 sdef_10155                   1430
    z_148_265        sdef_10156                   2254 sdef_10180                   4125
    z_148_265        sdef_10321                   2105 sdef_10322                   2470
    z_148_265        sdef_10415                   3542 sdef_10483                   3934
    z_148_265        sdef_10497                   5036 sdef_10498                   3970
    z_148_265        sdef_10499                   3145 sdef_10501                   4302
    z_148_265        sdef_10549                   2179 sdef_10550                   1873
    z_148_265        sdef_10551                   1159 sdef_10552                   2067
    z_148_265        sdef_10578                    895 sdef_10613                    375
    z_148_265        sdef_10614                    329 sdef_10817                    663
    z_148_265        sdef_10836                   2549 sdef_10837                   3395
    z_148_265        sdef_10853                   1801 sdef_10927                   2681
    z_148_265        sdef_11098                   1089 sdef_11167                   3732
    z_148_265        sdef_11376                   1121 sdef_11503                   5491
    z_148_265        sdef_11552                     25 sdef_11733                   3714
    z_148_265        sdef_1241                    2798 sdef_1242                    4242
    z_148_265        sdef_1243                    5179 sdef_1244                     332
    z_148_317        OBJ                             0 sdef_10091                     67
    z_148_317        sdef_10129                    378 sdef_10155                     63
    z_148_317        sdef_10156                    103 sdef_10180                    116
    z_148_317        sdef_10321                   3051 sdef_10322                   3254
    z_148_317        sdef_10415                    121 sdef_10483                   1749
    z_148_317        sdef_10497                   2011 sdef_10498                   2574
    z_148_317        sdef_10499                   3081 sdef_10501                   2844
    z_148_317        sdef_10549                   1893 sdef_10550                   1281
    z_148_317        sdef_10551                   1382 sdef_10552                   2255
    z_148_317        sdef_10578                    265 sdef_10613                    952
    z_148_317        sdef_10614                    910 sdef_10817                   2419
    z_148_317        sdef_10836                    612 sdef_10837                    694
    z_148_317        sdef_10853                     93 sdef_10927                    114
    z_148_317        sdef_11098                     88 sdef_11167                    210
    z_148_317        sdef_11376                   3044 sdef_11503                   1098
    z_148_317        sdef_11552                     41 sdef_11733                   1256
    z_148_317        sdef_1241                      78 sdef_1242                     188
    z_148_317        sdef_1243                     682 sdef_1244                       5
    z_148_318        OBJ                             0 sdef_10091                     91
    z_148_318        sdef_10129                    340 sdef_10155                     69
    z_148_318        sdef_10156                    112 sdef_10180                    161
    z_148_318        sdef_10321                   2114 sdef_10322                   2150
    z_148_318        sdef_10415                    188 sdef_10483                   1449
    z_148_318        sdef_10497                   1493 sdef_10498                   1811
    z_148_318        sdef_10499                   1915 sdef_10501                   1786
    z_148_318        sdef_10549                   1672 sdef_10550                   1322
    z_148_318        sdef_10551                   1476 sdef_10552                   1836
    z_148_318        sdef_10578                    452 sdef_10613                   1048
    z_148_318        sdef_10614                   1060 sdef_10817                   1993
    z_148_318        sdef_10836                    775 sdef_10837                    806
    z_148_318        sdef_10853                    157 sdef_10927                    129
    z_148_318        sdef_11098                    160 sdef_11167                    226
    z_148_318        sdef_11376                   2259 sdef_11503                    972
    z_148_318        sdef_11552                     56 sdef_11733                   1174
    z_148_318        sdef_1241                      99 sdef_1242                     272
    z_148_318        sdef_1243                     670 sdef_1244                       8
    z_148_374        OBJ                             0 sdef_10091                    179
    z_148_374        sdef_10129                   9797 sdef_10155                    734
    z_148_374        sdef_10156                   1189 sdef_10180                    186
    z_148_374        sdef_10321                   4589 sdef_10322                  10030
    z_148_374        sdef_10415                     76 sdef_10483                   5867
    z_148_374        sdef_10497                  24467 sdef_10498                  19907
    z_148_374        sdef_10499                  26297 sdef_10501                  44246
    z_148_374        sdef_10549                   1346 sdef_10550                    512
    z_148_374        sdef_10551                    267 sdef_10552                   1792
    z_148_374        sdef_10578                     27 sdef_10613                     48
    z_148_374        sdef_10614                     36 sdef_10817                    248
    z_148_374        sdef_10836                    269 sdef_10837                    624
    z_148_374        sdef_10853                     30 sdef_10927                    873
    z_148_374        sdef_11098                     15 sdef_11167                   1791
    z_148_374        sdef_11376                    895 sdef_11503                   9332
    z_148_374        sdef_11552                      2 sdef_11733                   2255
    z_148_374        sdef_1241                     355 sdef_1242                     152
    z_148_374        sdef_1243                    3963 sdef_1244                      20
    z_148_375        OBJ                             0 sdef_10091                   1523
    z_148_375        sdef_10129                  57290 sdef_10155                   5302
    z_148_375        sdef_10156                   8831 sdef_10180                   1530
    z_148_375        sdef_10321                  11657 sdef_10322                  21442
    z_148_375        sdef_10415                    569 sdef_10483                  22557
    z_148_375        sdef_10497                  71717 sdef_10498                  48163
    z_148_375        sdef_10499                  49447 sdef_10501                  89205
    z_148_375        sdef_10549                   5020 sdef_10550                   2188
    z_148_375        sdef_10551                   1076 sdef_10552                   5946
    z_148_375        sdef_10578                    152 sdef_10613                    187
    z_148_375        sdef_10614                    141 sdef_10817                    801
    z_148_375        sdef_10836                   1531 sdef_10837                   3636
    z_148_375        sdef_10853                    211 sdef_10927                   6878
    z_148_375        sdef_11098                     99 sdef_11167                  14132
    z_148_375        sdef_11376                   2636 sdef_11503                  48724
    z_148_375        sdef_11552                      8 sdef_11733                  10214
    z_148_375        sdef_1241                    3053 sdef_1242                    1128
    z_148_375        sdef_1243                   26060 sdef_1244                     174
    z_148_376        OBJ                             0 sdef_10091                   2486
    z_148_376        sdef_10129                  44312 sdef_10155                   6618
    z_148_376        sdef_10156                  10966 sdef_10180                   2349
    z_148_376        sdef_10321                   5449 sdef_10322                   8452
    z_148_376        sdef_10415                    816 sdef_10483                  12557
    z_148_376        sdef_10497                  30395 sdef_10498                  19254
    z_148_376        sdef_10499                  16778 sdef_10501                  30599
    z_148_376        sdef_10549                   3245 sdef_10550                   1659
    z_148_376        sdef_10551                    803 sdef_10552                   3504
    z_148_376        sdef_10578                    167 sdef_10613                    149
    z_148_376        sdef_10614                    115 sdef_10817                    520
    z_148_376        sdef_10836                   1491 sdef_10837                   3337
    z_148_376        sdef_10853                    292 sdef_10927                   9240
    z_148_376        sdef_11098                    131 sdef_11167                  17094
    z_148_376        sdef_11376                   1501 sdef_11503                  30002
    z_148_376        sdef_11552                      7 sdef_11733                   7176
    z_148_376        sdef_1241                    5009 sdef_1242                    1525
    z_148_376        sdef_1243                   21624 sdef_1244                     322
    z_148_377        OBJ                             0 sdef_10091                   3898
    z_148_377        sdef_10129                  30943 sdef_10155                   8451
    z_148_377        sdef_10156                  13178 sdef_10180                   2844
    z_148_377        sdef_10321                   2289 sdef_10322                   3313
    z_148_377        sdef_10415                    917 sdef_10483                   5282
    z_148_377        sdef_10497                  12042 sdef_10498                   7512
    z_148_377        sdef_10499                   6334 sdef_10501                  12092
    z_148_377        sdef_10549                   1587 sdef_10550                    920
    z_148_377        sdef_10551                    453 sdef_10552                   1621
    z_148_377        sdef_10578                    144 sdef_10613                     97
    z_148_377        sdef_10614                     77 sdef_10817                    278
    z_148_377        sdef_10836                    974 sdef_10837                   1974
    z_148_377        sdef_10853                    332 sdef_10927                  11124
    z_148_377        sdef_11098                    144 sdef_11167                  15252
    z_148_377        sdef_11376                    712 sdef_11503                  12694
    z_148_377        sdef_11552                      5 sdef_11733                   3538
    z_148_377        sdef_1241                    8193 sdef_1242                    1477
    z_148_377        sdef_1243                   10859 sdef_1244                     860
    z_148_378        OBJ                             0 sdef_10091                   2199
    z_148_378        sdef_10129                   9853 sdef_10155                   4134
    z_148_378        sdef_10156                   5934 sdef_10180                   1293
    z_148_378        sdef_10321                    636 sdef_10322                    895
    z_148_378        sdef_10415                    426 sdef_10483                   1434
    z_148_378        sdef_10497                   3169 sdef_10498                   1993
    z_148_378        sdef_10499                   1678 sdef_10501                   3250
    z_148_378        sdef_10549                    472 sdef_10550                    294
    z_148_378        sdef_10551                    149 sdef_10552                    471
    z_148_378        sdef_10578                     62 sdef_10613                     36
    z_148_378        sdef_10614                     29 sdef_10817                     90
    z_148_378        sdef_10836                    333 sdef_10837                    628
    z_148_378        sdef_10853                    165 sdef_10927                   4743
    z_148_378        sdef_11098                     72 sdef_11167                   5222
    z_148_378        sdef_11376                    213 sdef_11503                   3296
    z_148_378        sdef_11552                      2 sdef_11733                   1030
    z_148_378        sdef_1241                    4394 sdef_1242                     607
    z_148_378        sdef_1243                    2944 sdef_1244                    1094
    z_148_379        OBJ                             0 sdef_10091                   1396
    z_148_379        sdef_10129                   5128 sdef_10155                   2630
    z_148_379        sdef_10156                   3525 sdef_10180                    747
    z_148_379        sdef_10321                    312 sdef_10322                    435
    z_148_379        sdef_10415                    261 sdef_10483                    691
    z_148_379        sdef_10497                   1520 sdef_10498                    961
    z_148_379        sdef_10499                    815 sdef_10501                   1598
    z_148_379        sdef_10549                    238 sdef_10550                    153
    z_148_379        sdef_10551                     80 sdef_10552                    235
    z_148_379        sdef_10578                     39 sdef_10613                     21
    z_148_379        sdef_10614                     17 sdef_10817                     48
    z_148_379        sdef_10836                    179 sdef_10837                    322
    z_148_379        sdef_10853                    112 sdef_10927                   2660
    z_148_379        sdef_11098                     51 sdef_11167                   2684
    z_148_379        sdef_11376                    108 sdef_11503                   1548
    z_148_379        sdef_11552                      1 sdef_11733                    509
    z_148_379        sdef_1241                    2629 sdef_1242                     345
    z_148_379        sdef_1243                    1390 sdef_1244                    1567
    z_148_620        OBJ                             0 sdef_10091                   1155
    z_148_620        sdef_10129                  81089 sdef_10155                   8915
    z_148_620        sdef_10156                  13326 sdef_10180                    765
    z_148_620        sdef_10321                   2208 sdef_10322                   3936
    z_148_620        sdef_10415                    230 sdef_10483                   4361
    z_148_620        sdef_10497                  17532 sdef_10498                  10350
    z_148_620        sdef_10499                  10614 sdef_10501                  26614
    z_148_620        sdef_10549                   1009 sdef_10550                    464
    z_148_620        sdef_10551                    223 sdef_10552                   1135
    z_148_620        sdef_10578                     44 sdef_10613                     43
    z_148_620        sdef_10614                     33 sdef_10817                    160
    z_148_620        sdef_10836                    372 sdef_10837                    860
    z_148_620        sdef_10853                     83 sdef_10927                   7168
    z_148_620        sdef_11098                     37 sdef_11167                  10900
    z_148_620        sdef_11376                    498 sdef_11503                  11821
    z_148_620        sdef_11552                      2 sdef_11733                   2168
    z_148_620        sdef_1241                    2968 sdef_1242                     409
    z_148_620        sdef_1243                    7333 sdef_1244                     269
    z_148_621        OBJ                             0 sdef_10091                   1309
    z_148_621        sdef_10129                  41179 sdef_10155                   8838
    z_148_621        sdef_10156                  12463 sdef_10180                    744
    z_148_621        sdef_10321                   1017 sdef_10322                   1670
    z_148_621        sdef_10415                    216 sdef_10483                   2163
    z_148_621        sdef_10497                   7239 sdef_10498                   4257
    z_148_621        sdef_10499                   4072 sdef_10501                   9770
    z_148_621        sdef_10549                    555 sdef_10550                    283
    z_148_621        sdef_10551                    137 sdef_10552                    594
    z_148_621        sdef_10578                     36 sdef_10613                     28
    z_148_621        sdef_10614                     22 sdef_10817                     91
    z_148_621        sdef_10836                    260 sdef_10837                    569
    z_148_621        sdef_10853                     79 sdef_10927                   6795
    z_148_621        sdef_11098                     34 sdef_11167                   8536
    z_148_621        sdef_11376                    260 sdef_11503                   5834
    z_148_621        sdef_11552                      1 sdef_11733                   1230
    z_148_621        sdef_1241                    3493 sdef_1242                     355
    z_148_621        sdef_1243                    4275 sdef_1244                     506
    MARK0001  'MARKER'                 'INTEND'
RHS
    RHS1              sdef_10091                      0
    RHS1              sdef_10129                      0
    RHS1              sdef_10155                      0
    RHS1              sdef_10156                      0
    RHS1              sdef_10180                      0
    RHS1              sdef_10321                      0
    RHS1              sdef_10322                      0
    RHS1              sdef_10415                      0
    RHS1              sdef_10483                      0
    RHS1              sdef_10497                      0
    RHS1              sdef_10498                      0
    RHS1              sdef_10499                      0
    RHS1              sdef_10501                      0
    RHS1              sdef_10549                      0
    RHS1              sdef_10550                      0
    RHS1              sdef_10551                      0
    RHS1              sdef_10552                      0
    RHS1              sdef_10578                      0
    RHS1              sdef_10613                      0
    RHS1              sdef_10614                      0
    RHS1              sdef_10817                      0
    RHS1              sdef_10836                      0
    RHS1              sdef_10837                      0
    RHS1              sdef_10853                      0
    RHS1              sdef_10927                      0
    RHS1              sdef_11098                      0
    RHS1              sdef_11167                      0
    RHS1              sdef_11376                      0
    RHS1              sdef_11503                      0
    RHS1              sdef_11552                      0
    RHS1              sdef_11733                      0
    RHS1              sdef_1241                       0
    RHS1              sdef_1242                       0
    RHS1              sdef_1243                       0
    RHS1              sdef_1244                       0
BOUNDS
 BV BND1              z_148_153
 BV BND1              z_148_155
 BV BND1              z_148_260
 BV BND1              z_148_261
 BV BND1              z_148_262
 BV BND1              z_148_263
 BV BND1              z_148_264
 BV BND1              z_148_265
 BV BND1              z_148_317
 BV BND1              z_148_318
 BV BND1              z_148_374
 BV BND1              z_148_375
 BV BND1              z_148_376
 BV BND1              z_148_377
 BV BND1              z_148_378
 BV BND1              z_148_379
 BV BND1              z_148_620
 BV BND1              z_148_621
ENDATA
