NAME          ns1208400_ds
OBJSENSE
 MIN
ROWS
 N  OBJ
 E  R0341
 G  R3390
 G  R3391
 G  R3392
 G  R3393
 G  R3394
 G  R3395
 G  R3396
 G  R3397
 G  R3398
 G  R3399
 G  R3400
 G  R3401
 G  R3402
 G  R3403
 G  R3404
 G  R3405
 G  R3406
 G  R3407
 G  R3408
 G  R3409
 G  R3410
 G  R3411
 G  R3412
 G  R3413
 G  R3414
 G  R3415
 G  R3416
 G  R3417
 G  R3418
 G  R3419
 G  R3420
 G  R3421
 G  R3422
 G  R3423
 G  R3424
 G  R3425
 G  R3426
 G  R3427
 G  R3428
COLUMNS
    MARK0000  'MARKER'                 'INTORG'
    C0226            OBJ                             0 R0341                           1
    C0226            R3390                           1 R3391                           1
    C0226            R3392                           1 R3393                           1
    C0226            R3394                           1 R3395                           1
    C0226            R3396                           1 R3397                           1
    C0226            R3398                           1 R3399                           1
    C0226            R3400                           1 R3401                           1
    C0226            R3402                           1 R3403                           1
    C0226            R3404                           1 R3405                           1
    C0226            R3406                           1 R3407                           1
    C0226            R3408                           1 R3409                           1
    C0226            R3410                           1 R3411                           1
    C0226            R3412                           1 R3413                           1
    C0226            R3414                           1 R3415                           1
    C0226            R3416                           1 R3417                           1
    C0226            R3418                           1 R3419                           1
    C0226            R3420                           1 R3421                           1
    C0226            R3422                           1 R3423                           1
    C0226            R3424                           1 R3425                           1
    C0226            R3426                           1 R3427                           1
    C0226            R3428                           1
    C0229            OBJ                             0 R0341                           1
    C0229            R3390                           1 R3391                           1
    C0229            R3392                           1 R3393                           1
    C0229            R3394                           1 R3395                           1
    C0229            R3396                           1 R3397                           1
    C0229            R3398                           1 R3399                           1
    C0229            R3400                           1 R3401                           1
    C0229            R3402                           1 R3403                           1
    C0229            R3404                           1 R3405                           1
    C0229            R3406                           1 R3407                           1
    C0229            R3408                           1 R3409                           1
    C0229            R3410                           1 R3411                           1
    C0229            R3412                           1 R3413                           1
    C0229            R3414                           1 R3415                           1
    C0229            R3416                           1 R3417                           1
    C0229            R3418                           1 R3419                           1
    C0229            R3420                           1 R3421                           1
    C0229            R3422                           1 R3423                           1
    C0229            R3424                           1 R3425                           1
    C0229            R3426                           1 R3427                           1
    C0229            R3428                           1
    C0232            OBJ                             0 R0341                           1
    C0232            R3390                           1 R3391                           1
    C0232            R3392                           1 R3393                           1
    C0232            R3394                           1 R3395                           1
    C0232            R3396                           1 R3397                           1
    C0232            R3398                           1 R3399                           1
    C0232            R3400                           1 R3401                           1
    C0232            R3402                           1 R3403                           1
    C0232            R3404                           1 R3405                           1
    C0232            R3406                           1 R3407                           1
    C0232            R3408                           1 R3409                           1
    C0232            R3410                           1 R3411                           1
    C0232            R3412                           1 R3413                           1
    C0232            R3414                           1 R3415                           1
    C0232            R3416                           1 R3417                           1
    C0232            R3418                           1 R3419                           1
    C0232            R3420                           1 R3421                           1
    C0232            R3422                           1 R3423                           1
    C0232            R3424                           1 R3425                           1
    C0232            R3426                           1 R3427                           1
    C0232            R3428                           1
    C0235            OBJ                             0 R0341                           1
    C0235            R3390                           1 R3391                           1
    C0235            R3392                           1 R3393                           1
    C0235            R3394                           1 R3395                           1
    C0235            R3396                           1 R3397                           1
    C0235            R3398                           1 R3399                           1
    C0235            R3400                           1 R3401                           1
    C0235            R3402                           1 R3403                           1
    C0235            R3404                           1 R3405                           1
    C0235            R3406                           1 R3407                           1
    C0235            R3408                           1 R3409                           1
    C0235            R3410                           1 R3411                           1
    C0235            R3412                           1 R3413                           1
    C0235            R3414                           1 R3415                           1
    C0235            R3416                           1 R3417                           1
    C0235            R3418                           1 R3419                           1
    C0235            R3420                           1 R3421                           1
    C0235            R3422                           1 R3423                           1
    C0235            R3424                           1 R3425                           1
    C0235            R3426                           1 R3427                           1
    C0235            R3428                           1
    C0466            OBJ                             0 R0341                           1
    C0469            OBJ                             0 R0341                           1
    C0472            OBJ                             0 R0341                           1
    C0475            OBJ                             0 R0341                           1
    C0706            OBJ                             0 R0341                           1
    C0709            OBJ                             0 R0341                           1
    C0712            OBJ                             0 R0341                           1
    C0715            OBJ                             0 R0341                           1
    C0946            OBJ                             0 R0341                           1
    C0949            OBJ                             0 R0341                           1
    C0952            OBJ                             0 R0341                           1
    C0955            OBJ                             0 R0341                           1
    C1186            OBJ                             0 R0341                           1
    C1189            OBJ                             0 R0341                           1
    MARK0001  'MARKER'                 'INTEND'
RHS
    RHS1              R0341                           0
    RHS1              R3390                           1
    RHS1              R3391                           2
    RHS1              R3392                           3
    RHS1              R3393                           4
    RHS1              R3394                           5
    RHS1              R3395                           1
    RHS1              R3396                           2
    RHS1              R3397                           3
    RHS1              R3398                           4
    RHS1              R3399                           5
    RHS1              R3400                           1
    RHS1              R3401                           2
    RHS1              R3402                           3
    RHS1              R3403                           4
    RHS1              R3404                           5
    RHS1              R3405                           1
    RHS1              R3406                           2
    RHS1              R3407                           3
    RHS1              R3408                           4
    RHS1              R3409                           5
    RHS1              R3410                           1
    RHS1              R3411                           2
    RHS1              R3412                           3
    RHS1              R3413                           4
    RHS1              R3414                           5
    RHS1              R3415                           1
    RHS1              R3416                           2
    RHS1              R3417                           3
    RHS1              R3418                           4
    RHS1              R3419                           5
    RHS1              R3420                           1
    RHS1              R3421                           2
    RHS1              R3422                           3
    RHS1              R3423                           4
    RHS1              R3424                           5
    RHS1              R3425                           1
    RHS1              R3426                           2
    RHS1              R3427                           3
    RHS1              R3428                           4
BOUNDS
 BV BND1              C0226
 BV BND1              C0229
 BV BND1              C0232
 BV BND1              C0235
 BV BND1              C0466
 BV BND1              C0469
 BV BND1              C0472
 BV BND1              C0475
 BV BND1              C0706
 BV BND1              C0709
 BV BND1              C0712
 BV BND1              C0715
 BV BND1              C0946
 BV BND1              C0949
 BV BND1              C0952
 BV BND1              C0955
 BV BND1              C1186
 BV BND1              C1189
ENDATA
