NAME          cod105_ds
OBJSENSE
 MIN
ROWS
 N  OBJ
 L  c1013
 L  c1024
 L  c1008
 L  c1009
 L  c1010
 L  c1011
 L  c1012
 L  c1005
 L  c1006
 L  c1007
 L  c1023
 L  c1000
 L  c1001
 L  c1002
 L  c1003
 L  c1004
 L  c997
 L  c998
 L  c999
 L  c1022
 L  c830
 L  c834
 L  c835
 L  c839
 L  c840
 L  c841
 L  c845
 L  c846
 L  c847
 L  c848
 L  c3
 L  c5
 L  c824
 L  c825
 L  c826
 L  c827
 L  c828
 L  c829
 L  c831
 L  c832
COLUMNS
    MARK0000  'MARKER'                 'INTORG'
    x1               OBJ                            -1 c3                              1
    x1               c5                              1
    x10              OBJ                            -1 c3                              1
    x10              c5                              1
    x100             OBJ                            -1 c3                              1
    x100             c5                              1
    x1000            OBJ                            -1 c1013                           1
    x1000            c1024                           1 c1008                           1
    x1000            c1000                           1 c1001                           1
    x1000            c1002                           1 c1003                           1
    x1000            c1004                           1 c997                            1
    x1000            c998                            1 c999                            1
    x1000            c1022                           1 c830                            1
    x1000            c834                            1 c839                            1
    x1000            c845                            1 c824                            1
    x1000            c825                            1 c826                            1
    x1001            OBJ                            -1 c1013                           1
    x1001            c1024                           1 c1009                           1
    x1001            c1000                           1 c1001                           1
    x1001            c1002                           1 c1003                           1
    x1001            c1004                           1 c997                            1
    x1001            c998                            1 c999                            1
    x1001            c1022                           1 c830                            1
    x1001            c835                            1 c840                            1
    x1001            c846                            1 c827                            1
    x1001            c828                            1 c829                            1
    x1002            OBJ                            -1 c1013                           1
    x1002            c1024                           1 c1010                           1
    x1002            c1000                           1 c1001                           1
    x1002            c1002                           1 c1003                           1
    x1002            c1004                           1 c997                            1
    x1002            c998                            1 c999                            1
    x1002            c1022                           1 c834                            1
    x1002            c835                            1 c841                            1
    x1002            c847                            1 c831                            1
    x1002            c832                            1
    x1003            OBJ                            -1 c1013                           1
    x1003            c1024                           1 c1011                           1
    x1003            c1000                           1 c1001                           1
    x1003            c1002                           1 c1003                           1
    x1003            c1004                           1 c997                            1
    x1003            c998                            1 c999                            1
    x1003            c1022                           1 c839                            1
    x1003            c840                            1 c841                            1
    x1003            c848                            1
    x1004            OBJ                            -1 c1013                           1
    x1004            c1024                           1 c1012                           1
    x1004            c1000                           1 c1001                           1
    x1004            c1002                           1 c1003                           1
    x1004            c1004                           1 c997                            1
    x1004            c998                            1 c999                            1
    x1004            c1022                           1 c845                            1
    x1004            c846                            1 c847                            1
    x1004            c848                            1
    x1005            OBJ                            -1 c1013                           1
    x1005            c1024                           1 c1008                           1
    x1005            c1009                           1 c1010                           1
    x1005            c1011                           1 c1012                           1
    x1005            c1005                           1 c1006                           1
    x1005            c1007                           1 c1023                           1
    x1005            c997                            1 c824                            1
    x1005            c827                            1 c831                            1
    x1006            OBJ                            -1 c1013                           1
    x1006            c1024                           1 c1008                           1
    x1006            c1009                           1 c1010                           1
    x1006            c1011                           1 c1012                           1
    x1006            c1005                           1 c1006                           1
    x1006            c1007                           1 c1023                           1
    x1006            c998                            1 c825                            1
    x1006            c828                            1 c832                            1
    x1007            OBJ                            -1 c1013                           1
    x1007            c1024                           1 c1008                           1
    x1007            c1009                           1 c1010                           1
    x1007            c1011                           1 c1012                           1
    x1007            c1005                           1 c1006                           1
    x1007            c1007                           1 c1023                           1
    x1007            c999                            1 c826                            1
    x1007            c829                            1
    x1008            OBJ                            -1 c1013                           1
    x1008            c1024                           1 c1008                           1
    x1008            c1009                           1 c1010                           1
    x1008            c1011                           1 c1012                           1
    x1008            c1005                           1 c1006                           1
    x1008            c1007                           1 c1023                           1
    x1008            c1000                           1 c830                            1
    x1008            c834                            1 c839                            1
    x1008            c845                            1 c824                            1
    x1008            c825                            1 c826                            1
    x1009            OBJ                            -1 c1013                           1
    x1009            c1024                           1 c1008                           1
    x1009            c1009                           1 c1010                           1
    x1009            c1011                           1 c1012                           1
    x1009            c1005                           1 c1006                           1
    x1009            c1007                           1 c1023                           1
    x1009            c1001                           1 c830                            1
    x1009            c835                            1 c840                            1
    x1009            c846                            1 c827                            1
    x1009            c828                            1 c829                            1
    x101             OBJ                            -1 c3                              1
    x101             c5                              1
    x1010            OBJ                            -1 c1013                           1
    x1010            c1024                           1 c1008                           1
    x1010            c1009                           1 c1010                           1
    x1010            c1011                           1 c1012                           1
    x1010            c1005                           1 c1006                           1
    x1010            c1007                           1 c1023                           1
    x1010            c1002                           1 c834                            1
    x1010            c835                            1 c841                            1
    x1010            c847                            1 c831                            1
    x1010            c832                            1
    x1011            OBJ                            -1 c1013                           1
    x1011            c1024                           1 c1008                           1
    x1011            c1009                           1 c1010                           1
    x1011            c1011                           1 c1012                           1
    x1011            c1005                           1 c1006                           1
    x1011            c1007                           1 c1023                           1
    x1011            c1003                           1 c839                            1
    x1011            c840                            1 c841                            1
    x1011            c848                            1
    x1012            OBJ                            -1 c1013                           1
    x1012            c1024                           1 c1008                           1
    x1012            c1009                           1 c1010                           1
    x1012            c1011                           1 c1012                           1
    x1012            c1005                           1 c1006                           1
    x1012            c1007                           1 c1023                           1
    x1012            c1004                           1 c845                            1
    x1012            c846                            1 c847                            1
    x1012            c848                            1
    x1013            OBJ                            -1 c1013                           1
    x1013            c1024                           1 c1008                           1
    x1013            c1009                           1 c1010                           1
    x1013            c1011                           1 c1012                           1
    x1013            c1005                           1 c1006                           1
    x1013            c1007                           1 c1023                           1
    x1013            c1000                           1 c1001                           1
    x1013            c1002                           1 c1003                           1
    x1013            c1004                           1 c997                            1
    x1013            c998                            1 c999                            1
    x1013            c1022                           1 c830                            1
    x1013            c834                            1 c835                            1
    x1013            c839                            1 c840                            1
    x1013            c841                            1 c845                            1
    x1013            c846                            1 c847                            1
    x1013            c848                            1 c824                            1
    x1013            c825                            1 c826                            1
    x1013            c827                            1 c828                            1
    x1013            c829                            1 c831                            1
    x1013            c832                            1
    MARK0001  'MARKER'                 'INTEND'
RHS
    RHS1              c1013                           0
    RHS1              c1024                           0
    RHS1              c1008                           0
    RHS1              c1009                           0
    RHS1              c1010                           0
    RHS1              c1011                           0
    RHS1              c1012                           0
    RHS1              c1005                           0
    RHS1              c1006                           0
    RHS1              c1007                           0
    RHS1              c1023                           0
    RHS1              c1000                           0
    RHS1              c1001                           0
    RHS1              c1002                           0
    RHS1              c1003                           0
    RHS1              c1004                           0
    RHS1              c997                            0
    RHS1              c998                            0
    RHS1              c999                            0
    RHS1              c1022                           0
    RHS1              c830                            0
    RHS1              c834                            0
    RHS1              c835                            0
    RHS1              c839                            0
    RHS1              c840                            0
    RHS1              c841                            0
    RHS1              c845                            0
    RHS1              c846                            0
    RHS1              c847                            0
    RHS1              c848                            0
    RHS1              c3                              0
    RHS1              c5                              0
    RHS1              c824                            0
    RHS1              c825                            0
    RHS1              c826                            0
    RHS1              c827                            0
    RHS1              c828                            0
    RHS1              c829                            0
    RHS1              c831                            0
    RHS1              c832                            0
BOUNDS
 BV BND1              x1
 BV BND1              x10
 BV BND1              x100
 BV BND1              x1000
 BV BND1              x1001
 BV BND1              x1002
 BV BND1              x1003
 BV BND1              x1004
 BV BND1              x1005
 BV BND1              x1006
 BV BND1              x1007
 BV BND1              x1008
 BV BND1              x1009
 BV BND1              x101
 BV BND1              x1010
 BV BND1              x1011
 BV BND1              x1012
 BV BND1              x1013
ENDATA
