NAME          neos-3555904-turama_ds
OBJSENSE
 MIN
ROWS
 N  OBJ
 L  c101455
 L  c101456
 L  c101457
 L  c101458
 L  c101459
 L  c101460
 L  c101461
 L  c101462
 L  c101463
 L  c101464
 L  c101465
 L  c101466
 L  c101467
 L  c101468
 L  c101469
 L  c101470
 L  c101471
 L  c101472
 L  c101473
 L  c101474
 L  c101475
 L  c101476
 L  c101477
 L  c101478
 L  c101479
 L  c101480
 L  c101481
 L  c101482
 L  c101483
 L  c101484
 L  c101485
 L  c101486
 L  c101487
 L  c101488
 L  c101489
 L  c101490
 L  c101491
 L  c101492
 L  c101493
 L  c101494
COLUMNS
    MARK0000  'MARKER'                 'INTORG'
    x35202           OBJ                             0 c101455                         1
    x35202           c101456                        -1 c101457                        -1
    x35202           c101458                        -1 c101459                        -1
    x35202           c101460                        -1 c101461                        -1
    x35202           c101462                        -1 c101463                        -1
    x35202           c101464                        -1 c101465                        -1
    x35202           c101466                        -1 c101467                        -1
    x35202           c101468                        -1 c101469                        -1
    x35202           c101470                        -1 c101471                         1
    x35202           c101472                         1 c101473                        -1
    x35202           c101474                        -1 c101475                        -1
    x35202           c101476                        -1 c101477                        -1
    x35202           c101478                        -1 c101479                        -1
    x35202           c101480                        -1 c101481                        -1
    x35202           c101482                        -1 c101483                        -1
    x35202           c101484                        -1 c101485                        -1
    x35202           c101486                        -1 c101487                        -1
    x35202           c101488                         1 c101489                         1
    x35202           c101490                        -1 c101491                        -1
    x35202           c101492                        -1 c101493                        -1
    x35202           c101494                        -1
    x33763           OBJ                             0
    x33875           OBJ                             0
    x35745           OBJ                             0
    x34462           OBJ                             0
    x29991           OBJ                             0
    x35197           OBJ                             0 c101455                         1
    x35197           c101456                        -1 c101457                        -1
    x35197           c101458                        -1 c101459                        -1
    x35197           c101460                        -1 c101461                        -1
    x35197           c101462                        -1 c101463                        -1
    x35197           c101464                        -1 c101465                        -1
    x35197           c101466                         1 c101467                        -1
    x35197           c101468                        -1 c101469                        -1
    x35197           c101470                        -1 c101471                        -1
    x35197           c101472                         1 c101473                        -1
    x35197           c101474                        -1 c101475                        -1
    x35197           c101476                        -1 c101477                        -1
    x35197           c101478                        -1 c101479                        -1
    x35197           c101480                        -1 c101481                        -1
    x35197           c101482                        -1 c101483                         1
    x35197           c101484                        -1 c101485                        -1
    x35197           c101486                        -1 c101487                        -1
    x35197           c101488                        -1 c101489                         1
    x35197           c101490                        -1 c101491                        -1
    x35197           c101492                        -1 c101493                        -1
    x35197           c101494                        -1
    x29913           OBJ                             0
    x29914           OBJ                             0
    x29915           OBJ                             0
    x29992           OBJ                             0
    x29993           OBJ                             0
    x30737           OBJ                             0
    x30738           OBJ                             0
    x30814           OBJ                             0
    x30815           OBJ                             0
    x35198           OBJ                             0 c101455                         1
    x35198           c101456                        -1 c101457                        -1
    x35198           c101458                        -1 c101459                        -1
    x35198           c101460                        -1 c101461                        -1
    x35198           c101462                        -1 c101463                        -1
    x35198           c101464                        -1 c101465                        -1
    x35198           c101466                        -1 c101467                         1
    x35198           c101468                        -1 c101469                        -1
    x35198           c101470                        -1 c101471                        -1
    x35198           c101472                         1 c101473                        -1
    x35198           c101474                        -1 c101475                        -1
    x35198           c101476                        -1 c101477                        -1
    x35198           c101478                        -1 c101479                        -1
    x35198           c101480                        -1 c101481                        -1
    x35198           c101482                        -1 c101483                        -1
    x35198           c101484                         1 c101485                        -1
    x35198           c101486                        -1 c101487                        -1
    x35198           c101488                        -1 c101489                         1
    x35198           c101490                        -1 c101491                        -1
    x35198           c101492                        -1 c101493                        -1
    x35198           c101494                        -1
    x35199           OBJ                             0 c101455                         1
    x35199           c101456                        -1 c101457                        -1
    x35199           c101458                        -1 c101459                        -1
    x35199           c101460                        -1 c101461                        -1
    x35199           c101462                        -1 c101463                        -1
    x35199           c101464                        -1 c101465                        -1
    x35199           c101466                        -1 c101467                        -1
    x35199           c101468                         1 c101469                        -1
    x35199           c101470                        -1 c101471                        -1
    x35199           c101472                         1 c101473                        -1
    x35199           c101474                        -1 c101475                        -1
    x35199           c101476                        -1 c101477                        -1
    x35199           c101478                        -1 c101479                        -1
    x35199           c101480                        -1 c101481                        -1
    x35199           c101482                        -1 c101483                        -1
    x35199           c101484                        -1 c101485                         1
    x35199           c101486                        -1 c101487                        -1
    x35199           c101488                        -1 c101489                         1
    x35199           c101490                        -1 c101491                        -1
    x35199           c101492                        -1 c101493                        -1
    x35199           c101494                        -1
    MARK0001  'MARKER'                 'INTEND'
RHS
    RHS1              c101455                         0
    RHS1              c101456                         0
    RHS1              c101457                         0
    RHS1              c101458                         0
    RHS1              c101459                         0
    RHS1              c101460                         0
    RHS1              c101461                         0
    RHS1              c101462                         0
    RHS1              c101463                         0
    RHS1              c101464                         0
    RHS1              c101465                         0
    RHS1              c101466                         0
    RHS1              c101467                         0
    RHS1              c101468                         0
    RHS1              c101469                         0
    RHS1              c101470                         0
    RHS1              c101471                         0
    RHS1              c101472                         0
    RHS1              c101473                         0
    RHS1              c101474                         0
    RHS1              c101475                         0
    RHS1              c101476                         0
    RHS1              c101477                         0
    RHS1              c101478                         0
    RHS1              c101479                         0
    RHS1              c101480                         0
    RHS1              c101481                         0
    RHS1              c101482                         0
    RHS1              c101483                         0
    RHS1              c101484                         0
    RHS1              c101485                         0
    RHS1              c101486                         0
    RHS1              c101487                         0
    RHS1              c101488                         0
    RHS1              c101489                         0
    RHS1              c101490                         0
    RHS1              c101491                         0
    RHS1              c101492                         0
    RHS1              c101493                         0
    RHS1              c101494                         0
BOUNDS
 BV BND1              x35202
 BV BND1              x33763
 BV BND1              x33875
 BV BND1              x35745
 BV BND1              x34462
 BV BND1              x29991
 BV BND1              x35197
 BV BND1              x29913
 BV BND1              x29914
 BV BND1              x29915
 BV BND1              x29992
 BV BND1              x29993
 BV BND1              x30737
 BV BND1              x30738
 BV BND1              x30814
 BV BND1              x30815
 BV BND1              x35198
 BV BND1              x35199
ENDATA
