NAME          neos-1122047_ds
OBJSENSE
 MIN
ROWS
 N  OBJ
 G  R0001
 G  R10000
 G  R10001
 G  R10002
 G  R10003
 G  R10004
 G  R10005
 G  R10006
 G  R10007
 G  R10008
 G  R10009
 G  R10010
 G  R10011
 G  R10012
 G  R10013
 G  R10014
 G  R10015
 G  R10016
 G  R10017
 G  R10018
 G  R10019
 G  R10020
 G  R10021
 G  R10022
 G  R10023
 G  R10024
 G  R10025
 G  R10026
 G  R10027
 G  R10028
 G  R10029
 G  R10030
 G  R10031
 G  R10032
 G  R10033
 G  R10034
 G  R10035
 G  R10036
 G  R10037
 G  R10038
COLUMNS
    MARK0000  'MARKER'                 'INTORG'
    C5001            OBJ                             1 R0001                           1
    C5002            OBJ                             1 R0001                           1
    C5002            R10000                  -9.14e+06 R10001                  -9.96e+06
    C5002            R10002                  -1.23e+06 R10003                  -8.01e+06
    C5002            R10004                  -8.06e+06 R10005                  -7.64e+06
    C5002            R10006                  -9.73e+06 R10007                  -6.97e+06
    C5002            R10008                  -7.45e+06 R10009                   -8.4e+06
    C5002            R10010                   -3.9e+06 R10011                  -8.22e+06
    C5002            R10012                  -9.78e+06 R10013                  -7.31e+06
    C5002            R10014                  -3.31e+06 R10015                  -6.78e+06
    C5002            R10016                  -8.05e+06 R10017                  -7.39e+06
    C5002            R10018                  -6.06e+06 R10019                    -680000
    C5002            R10020                  -5.91e+06 R10021                  -9.58e+06
    C5002            R10022                    -170000 R10023                  -8.66e+06
    C5002            R10024                     -5e+06 R10025                  -7.77e+06
    C5002            R10026                  -9.67e+06 R10027                     -8e+06
    C5002            R10028                  -8.88e+06 R10029                  -1.08e+06
    C5002            R10030                  -1.71e+06 R10031                  -1.12e+06
    C5002            R10032                  -9.51e+06 R10033                  -7.21e+06
    C5002            R10034                  -2.63e+06 R10035                  -7.03e+06
    C5002            R10036                  -8.83e+06 R10037                  -7.63e+06
    C5002            R10038                  -1.33e+06
    C5003            OBJ                             1 R0001                           1
    C5004            OBJ                             1 R0001                           1
    C5005            OBJ                             1 R0001                           1
    C5006            OBJ                             1 R0001                           1
    C5007            OBJ                             1 R0001                           1
    C5008            OBJ                             1 R0001                           1
    C5009            OBJ                             1 R0001                           1
    C5011            OBJ                             2 R0001                           2
    C5012            OBJ                             2 R0001                           2
    C5013            OBJ                             2 R0001                           2
    C5014            OBJ                             2 R0001                           2
    C5015            OBJ                             2 R0001                           2
    C5016            OBJ                             2 R0001                           2
    C5017            OBJ                             2 R0001                           2
    C5018            OBJ                             2 R0001                           2
    C5019            OBJ                             2 R0001                           2
    MARK0001  'MARKER'                 'INTEND'
RHS
    RHS1              R0001                         161
    RHS1              R10000               -9.13747e+06
    RHS1              R10001               -9.95666e+06
    RHS1              R10002               -1.22971e+06
    RHS1              R10003               -8.00838e+06
    RHS1              R10004               -8.05715e+06
    RHS1              R10005               -7.63777e+06
    RHS1              R10006               -9.72685e+06
    RHS1              R10007               -6.96605e+06
    RHS1              R10008               -7.44907e+06
    RHS1              R10009               -8.39746e+06
    RHS1              R10010               -3.89846e+06
    RHS1              R10011               -8.21915e+06
    RHS1              R10012               -9.77866e+06
    RHS1              R10013               -7.30759e+06
    RHS1              R10014               -3.30906e+06
    RHS1              R10015               -6.77845e+06
    RHS1              R10016               -8.04666e+06
    RHS1              R10017               -7.38727e+06
    RHS1              R10018               -6.05902e+06
    RHS1              R10019                    -679763
    RHS1              R10020               -5.90729e+06
    RHS1              R10021               -9.57753e+06
    RHS1              R10022                    -169959
    RHS1              R10023                -8.6578e+06
    RHS1              R10024               -4.99912e+06
    RHS1              R10025               -7.76784e+06
    RHS1              R10026               -9.66797e+06
    RHS1              R10027               -7.99577e+06
    RHS1              R10028               -8.87724e+06
    RHS1              R10029               -1.07978e+06
    RHS1              R10030               -1.70953e+06
    RHS1              R10031               -1.11959e+06
    RHS1              R10032               -9.50683e+06
    RHS1              R10033               -7.20826e+06
    RHS1              R10034               -2.62881e+06
    RHS1              R10035               -7.02778e+06
    RHS1              R10036               -8.82732e+06
    RHS1              R10037               -7.62804e+06
    RHS1              R10038               -1.32946e+06
BOUNDS
 BV BND1              C5001
 BV BND1              C5002
 BV BND1              C5003
 BV BND1              C5004
 BV BND1              C5005
 BV BND1              C5006
 BV BND1              C5007
 BV BND1              C5008
 BV BND1              C5009
 BV BND1              C5011
 BV BND1              C5012
 BV BND1              C5013
 BV BND1              C5014
 BV BND1              C5015
 BV BND1              C5016
 BV BND1              C5017
 BV BND1              C5018
 BV BND1              C5019
ENDATA
