NAME          b1c1s1_ds
OBJSENSE
 MIN
ROWS
 N  OBJ
 L  C___0401
 L  C___0402
 L  V1805101
 L  V1805102
 L  V2005101
 L  V2005102
 L  V2205101
 L  V2205102
 L  V2405101
 L  V2405102
 L  V2605101
 L  V2605102
 L  V2805101
 L  V2805102
 L  V3005101
 L  V3005102
 L  V3205101
 L  V3205102
 L  V4902101
 L  V4902102
 L  V4902103
 L  V4902104
 L  V4902105
 L  V4902106
 L  V4902107
 L  V4902108
 L  V4902109
 L  V4902110
 L  V4902111
 L  V4902112
 L  V4902113
 L  V4902114
 L  V4902115
 L  V4902116
 L  V5102101
 L  V5102102
 L  V5102103
 L  V5102104
 L  V5102105
 L  V5102106
COLUMNS
    MARK0000  'MARKER'                 'INTORG'
    u___0201         OBJ                           500 V4902101                       -1
    u___0201         V5102101                       -1
    u___0202         OBJ                           500 V4902102                       -1
    u___0202         V5102102                       -1
    u___0203         OBJ                           500 V4902103                       -1
    u___0203         V5102103                       -1
    u___0204         OBJ                           500 V4902104                       -1
    u___0204         V5102104                       -1
    u___0205         OBJ                           500 V4902105                       -1
    u___0205         V5102105                       -1
    u___0206         OBJ                           500 V4902106                       -1
    u___0206         V5102106                       -1
    u___0207         OBJ                           500 V4902107                       -1
    u___0208         OBJ                           500 V4902108                       -1
    u___0209         OBJ                           500 V4902109                       -1
    u___0210         OBJ                           500 V4902110                       -1
    u___0211         OBJ                           500 V4902111                       -1
    u___0212         OBJ                           500 V4902112                       -1
    u___0213         OBJ                           500 V4902113                       -1
    u___0214         OBJ                           500 V4902114                       -1
    u___0215         OBJ                           500 V4902115                       -1
    u___0216         OBJ                           500 V4902116                       -1
    u___0501         OBJ                          1200 C___0401                       40
    u___0501         V1805101                       -1 V2005101                       -1
    u___0501         V2205101                       -1 V2405101                       -1
    u___0501         V2605101                       -1 V2805101                       -1
    u___0501         V3005101                       -1 V3205101                       -1
    u___0502         OBJ                          1200 C___0402                       40
    u___0502         V1805102                       -1 V2005102                       -1
    u___0502         V2205102                       -1 V2405102                       -1
    u___0502         V2605102                       -1 V2805102                       -1
    u___0502         V3005102                       -1 V3205102                       -1
    MARK0001  'MARKER'                 'INTEND'
RHS
    RHS1              C___0401                        0
    RHS1              C___0402                        0
    RHS1              V1805101                        0
    RHS1              V1805102                        0
    RHS1              V2005101                        0
    RHS1              V2005102                        0
    RHS1              V2205101                        0
    RHS1              V2205102                        0
    RHS1              V2405101                        0
    RHS1              V2405102                        0
    RHS1              V2605101                        0
    RHS1              V2605102                        0
    RHS1              V2805101                        0
    RHS1              V2805102                        0
    RHS1              V3005101                        0
    RHS1              V3005102                        0
    RHS1              V3205101                        0
    RHS1              V3205102                        0
    RHS1              V4902101                        0
    RHS1              V4902102                        0
    RHS1              V4902103                        0
    RHS1              V4902104                        0
    RHS1              V4902105                        0
    RHS1              V4902106                        0
    RHS1              V4902107                        0
    RHS1              V4902108                        0
    RHS1              V4902109                        0
    RHS1              V4902110                        0
    RHS1              V4902111                        0
    RHS1              V4902112                        0
    RHS1              V4902113                        0
    RHS1              V4902114                        0
    RHS1              V4902115                        0
    RHS1              V4902116                        0
    RHS1              V5102101                        0
    RHS1              V5102102                        0
    RHS1              V5102103                        0
    RHS1              V5102104                        0
    RHS1              V5102105                        0
    RHS1              V5102106                        0
BOUNDS
 BV BND1              u___0201
 BV BND1              u___0202
 BV BND1              u___0203
 BV BND1              u___0204
 BV BND1              u___0205
 BV BND1              u___0206
 BV BND1              u___0207
 BV BND1              u___0208
 BV BND1              u___0209
 BV BND1              u___0210
 BV BND1              u___0211
 BV BND1              u___0212
 BV BND1              u___0213
 BV BND1              u___0214
 BV BND1              u___0215
 BV BND1              u___0216
 BV BND1              u___0501
 BV BND1              u___0502
ENDATA
