NAME          supportcase22_ds
OBJSENSE
 MIN
ROWS
 N  OBJ
 L  c0
 G  c1000
 G  c1001
 G  c1002
 G  c1003
 G  c1004
 G  c1005
 G  c1006
 G  c1007
 G  c1008
 G  c1009
 G  c1010
 G  c1011
 G  c1012
 G  c1013
 G  c1014
 G  c1015
 G  c1016
 G  c1017
 G  c1018
 G  c1019
 G  c1020
 G  c1021
 G  c1022
 G  c1023
 G  c1024
 G  c1025
 G  c1026
 G  c1027
 G  c1028
 G  c1029
 G  c1030
 G  c1031
 G  c1032
 G  c1033
 G  c1034
 G  c1035
 G  c1036
 G  c1037
 G  c1038
COLUMNS
    MARK0000  'MARKER'                 'INTORG'
    B1862(1222)      OBJ                             7 c0                              7
    B1862(1222)      c1000                         -16 c1001                         -16
    B1862(1222)      c1002                         -16 c1003                         -16
    B1862(1222)      c1004                         -16 c1005                         -16
    B1862(1222)      c1006                         -16 c1007                         -16
    B1862(1222)      c1008                         -16 c1009                         -16
    B1862(1222)      c1010                         -16 c1011                         -16
    B1862(1222)      c1012                         -16 c1013                         -16
    B1862(1222)      c1014                         -16 c1015                         -16
    B1862(1222)      c1016                         -16 c1017                         -16
    B1862(1222)      c1018                         -16 c1019                         -16
    B1862(1222)      c1020                         -16 c1021                         -16
    B1862(1222)      c1022                         -16 c1023                         -16
    B1862(1222)      c1024                         -16 c1025                         -16
    B1862(1222)      c1026                         -16 c1027                         -16
    B1862(1222)      c1028                         -16 c1029                         -16
    B1862(1222)      c1030                         -16 c1031                         -16
    B1862(1222)      c1032                         -16 c1033                         -16
    B1862(1222)      c1034                         -16 c1035                         -16
    B1862(1222)      c1036                         -16 c1037                         -16
    B1862(1222)      c1038                         -16
    B1865(1222)      OBJ                             7 c0                              7
    B1868(1222)      OBJ                             7 c0                              7
    B1871(1222)      OBJ                             7 c0                              7
    B1874(1222)      OBJ                             7 c0                              7
    B1877(1222)      OBJ                             7 c0                              7
    B1880(1222)      OBJ                             7 c0                              7
    B1883(1222)      OBJ                             7 c0                              7
    B1886(1222)      OBJ                             7 c0                              7
    B1889(1222)      OBJ                             7 c0                              7
    B1892(1222)      OBJ                             7 c0                              7
    B1895(1222)      OBJ                             7 c0                              7
    B1898(1222)      OBJ                             7 c0                              7
    B1901(1222)      OBJ                             7 c0                              7
    B1904(1222)      OBJ                             7 c0                              7
    B1907(1222)      OBJ                             7 c0                              7
    B1910(1222)      OBJ                             7 c0                              7
    B1913(1222)      OBJ                             7 c0                              7
    MARK0001  'MARKER'                 'INTEND'
RHS
    RHS1              c0                            127
    RHS1              c1000                         -19
    RHS1              c1001                         -20
    RHS1              c1002                         -19
    RHS1              c1003                         -19
    RHS1              c1004                         -19
    RHS1              c1005                         -19
    RHS1              c1006                         -19
    RHS1              c1007                         -20
    RHS1              c1008                         -19
    RHS1              c1009                         -19
    RHS1              c1010                         -19
    RHS1              c1011                         -19
    RHS1              c1012                         -19
    RHS1              c1013                         -19
    RHS1              c1014                         -19
    RHS1              c1015                         -19
    RHS1              c1016                         -19
    RHS1              c1017                         -20
    RHS1              c1018                         -19
    RHS1              c1019                         -19
    RHS1              c1020                         -19
    RHS1              c1021                         -18
    RHS1              c1022                         -15
    RHS1              c1023                         -19
    RHS1              c1024                         -19
    RHS1              c1025                         -19
    RHS1              c1026                         -19
    RHS1              c1027                         -19
    RHS1              c1028                         -19
    RHS1              c1029                         -19
    RHS1              c1030                         -19
    RHS1              c1031                         -19
    RHS1              c1032                         -19
    RHS1              c1033                         -19
    RHS1              c1034                         -19
    RHS1              c1035                         -19
    RHS1              c1036                         -19
    RHS1              c1037                         -19
    RHS1              c1038                         -19
BOUNDS
 BV BND1              B1862(1222)
 BV BND1              B1865(1222)
 BV BND1              B1868(1222)
 BV BND1              B1871(1222)
 BV BND1              B1874(1222)
 BV BND1              B1877(1222)
 BV BND1              B1880(1222)
 BV BND1              B1883(1222)
 BV BND1              B1886(1222)
 BV BND1              B1889(1222)
 BV BND1              B1892(1222)
 BV BND1              B1895(1222)
 BV BND1              B1898(1222)
 BV BND1              B1901(1222)
 BV BND1              B1904(1222)
 BV BND1              B1907(1222)
 BV BND1              B1910(1222)
 BV BND1              B1913(1222)
ENDATA
