NAME          sct2_ds
OBJSENSE
 MIN
ROWS
 N  OBJ
 E  c0
 G  c493
 G  c494
 G  c495
 G  c496
 G  c497
 G  c498
 G  c501
 G  c502
 G  c503
 G  c505
 L  c629
 L  c630
 L  c631
 L  c632
 L  c633
 L  c634
 L  c637
 L  c638
 L  c639
 L  c641
 L  c74
 G  c499
 G  c500
 G  c508
 L  c635
 L  c636
 L  c644
 E  c114
 G  c442
 G  c443
 G  c444
 G  c445
 G  c446
 G  c447
 G  c448
 G  c450
 G  c451
 G  c452
 G  c454
COLUMNS
    MARK0000  'MARKER'                 'INTORG'
    x1080            OBJ                             0 c0                             19
    x1080            c493                           36 c494                            8
    x1080            c495                           58 c496                           40
    x1080            c497                          178 c498                          178
    x1080            c501                           52 c502                           14
    x1080            c503                           32 c505                            2
    x1080            c629                         9756 c630                         2144
    x1080            c631                        15892 c632                        11320
    x1080            c633                        49840 c634                        49662
    x1080            c637                        22204 c638                         5068
    x1080            c639                        10176 c641                          686
    x1080            c74                             1 c499                           62
    x1080            c500                           38 c508                           24
    x1080            c635                        18538 c636                        15124
    x1080            c644                         6456
    x3               OBJ                             0 c0                             19
    x3               c442                           36 c443                            8
    x3               c444                           58 c445                           40
    x3               c446                          178 c447                          178
    x3               c448                           62 c450                           52
    x3               c451                           14 c452                           32
    x3               c454                            2
    x362             OBJ                             0 c0                             19
    x721             OBJ                             0 c0                             19
    x1083            OBJ                             0 c0                             18
    x1083            c493                          148 c494                           58
    x1083            c495                           62 c496                          110
    x1083            c497                           22 c498                           22
    x1083            c501                           76 c502                           34
    x1083            c503                           80 c505                           12
    x1083            c629                        40108 c630                        15544
    x1083            c631                        16988 c632                        31130
    x1083            c633                         6160 c634                         6138
    x1083            c637                        32452 c638                        12308
    x1083            c639                        25440 c641                         4116
    x1083            c74                             1 c499                          122
    x1083            c500                           52 c508                            8
    x1083            c635                        36478 c636                        20696
    x1083            c644                         2152
    x1108            OBJ                             0 c0                             18
    x1108            c493                          514 c494                          322
    x1108            c495                          358 c496                          334
    x1108            c497                          416 c498                          416
    x1108            c501                          182 c502                           58
    x1108            c503                          152 c505                           54
    x1108            c629                       139294 c630                        86296
    x1108            c631                        98092 c632                        94522
    x1108            c633                       116480 c634                       116064
    x1108            c637                        77714 c638                        20996
    x1108            c639                        48336 c641                        18522
    x1108            c74                             1 c499                          264
    x1108            c500                           62 c508                           76
    x1108            c635                        78936 c636                        24676
    x1108            c644                        20444 c114                            1
    x31              OBJ                             0 c0                             18
    x31              c114                            1 c442                          514
    x31              c443                          322 c444                          358
    x31              c445                          334 c446                          416
    x31              c447                          416 c448                          264
    x31              c450                          182 c451                           58
    x31              c452                          152 c454                           54
    x365             OBJ                             0 c0                             18
    x390             OBJ                             0 c0                             18
    x390             c114                            1
    x6               OBJ                             0 c0                             18
    x6               c442                          148 c443                           58
    x6               c444                           62 c445                          110
    x6               c446                           22 c447                           22
    x6               c448                          122 c450                           76
    x6               c451                           34 c452                           80
    x6               c454                           12
    x724             OBJ                             0 c0                             18
    x749             OBJ                             0 c0                             18
    x749             c114                            1
    x1090            OBJ                             0 c0                             15
    x1090            c493                           70 c494                           76
    x1090            c495                            4 c496                           68
    x1090            c497                          140 c498                          140
    x1090            c501                            2 c502                           10
    x1090            c503                            8 c505                            2
    x1090            c629                        18970 c630                        20368
    x1090            c631                         1096 c632                        19244
    x1090            c633                        39200 c634                        39060
    x1090            c637                          854 c638                         3620
    x1090            c639                         2544 c641                          686
    x1090            c74                             1 c499                            4
    x1090            c508                            4 c635                         1196
    x1090            c644                         1076
    x13              OBJ                             0 c0                             15
    x13              c442                           70 c443                           76
    x13              c444                            4 c445                           68
    x13              c446                          140 c447                          140
    x13              c448                            4 c450                            2
    x13              c451                           10 c452                            8
    x13              c454                            2
    x372             OBJ                             0 c0                             15
    x731             OBJ                             0 c0                             15
    x1084            OBJ                             0 c0                             13
    x1084            c493                           20 c494                           10
    x1084            c495                           10 c496                           18
    x1084            c497                           12 c498                           12
    x1084            c501                           10 c502                            2
    x1084            c503                            2 c505                            4
    x1084            c629                         5420 c630                         2680
    x1084            c631                         2740 c632                         5094
    x1084            c633                         3360 c634                         3348
    x1084            c637                         4270 c638                          724
    x1084            c639                          636 c641                         1372
    x1084            c74                             1 c499                            6
    x1084            c500                           10 c635                         1794
    x1084            c636                         3980
    x1097            OBJ                             0 c0                             13
    x1097            c493                           64 c494                           86
    x1097            c495                           30 c496                           44
    x1097            c497                           12 c498                           12
    x1097            c501                            4 c502                           26
    x1097            c503                           24 c505                           12
    x1097            c629                        17344 c630                        23048
    x1097            c631                         8220 c632                        12452
    x1097            c633                         3360 c634                         3348
    x1097            c637                         1708 c638                         9412
    x1097            c639                         7632 c641                         4116
    x1097            c74                             1 c500                           64
    x1097            c508                            4 c636                        25472
    x1097            c644                         1076
    MARK0001  'MARKER'                 'INTEND'
RHS
    RHS1              c0                              0
    RHS1              c493                            0
    RHS1              c494                            0
    RHS1              c495                            0
    RHS1              c496                            0
    RHS1              c497                            0
    RHS1              c498                            0
    RHS1              c501                            0
    RHS1              c502                            0
    RHS1              c503                            0
    RHS1              c505                            0
    RHS1              c629                            0
    RHS1              c630                            0
    RHS1              c631                            0
    RHS1              c632                            0
    RHS1              c633                            0
    RHS1              c634                            0
    RHS1              c637                            0
    RHS1              c638                            0
    RHS1              c639                            0
    RHS1              c641                            0
    RHS1              c74                             0
    RHS1              c499                            0
    RHS1              c500                            0
    RHS1              c508                            0
    RHS1              c635                            0
    RHS1              c636                            0
    RHS1              c644                            0
    RHS1              c114                            0
    RHS1              c442                            0
    RHS1              c443                            0
    RHS1              c444                            0
    RHS1              c445                            0
    RHS1              c446                            0
    RHS1              c447                            0
    RHS1              c448                            0
    RHS1              c450                            0
    RHS1              c451                            0
    RHS1              c452                            0
    RHS1              c454                            0
BOUNDS
 BV BND1              x1080
 BV BND1              x3
 BV BND1              x362
 BV BND1              x721
 BV BND1              x1083
 BV BND1              x1108
 BV BND1              x31
 BV BND1              x365
 BV BND1              x390
 BV BND1              x6
 BV BND1              x724
 BV BND1              x749
 BV BND1              x1090
 BV BND1              x13
 BV BND1              x372
 BV BND1              x731
 BV BND1              x1084
 BV BND1              x1097
ENDATA
