NAME          swath1_ds
OBJSENSE
 MIN
ROWS
 N  OBJ
 E  R0000001
 E  R0000456
 E  R0000457
 E  R0000004
 E  R0000005
 E  R0000022
 E  R0000023
 L  R0000271
 L  R0000272
 L  R0000288
 L  R0000289
 E  R0000006
 E  R0000021
 L  R0000273
 L  R0000287
 E  R0000404
 E  R0000405
 E  R0000406
 E  R0000407
 E  R0000408
 E  R0000409
 E  R0000410
 E  R0000411
 E  R0000412
 E  R0000475
 E  R0000476
 E  R0000477
 E  R0000478
 E  R0000479
 E  R0000480
 E  R0000481
 E  R0000482
 E  R0000483
COLUMNS
    MARK0000  'MARKER'                 'INTORG'
    C0004500         OBJ                             0 R0000001             -7.10659e+07
    C0004500         R0000456                       -1 R0000021                        1
    C0004500         R0000287                       20 R0000475                        1
    C0004501         OBJ                             0 R0000001             -7.28992e+07
    C0004501         R0000456                       -1 R0000022                        1
    C0004501         R0000288                       20 R0000476                        1
    C0004502         OBJ                             0 R0000001             -6.65797e+07
    C0004502         R0000456                       -1 R0000022                        1
    C0004502         R0000288                       20 R0000477                        1
    C0004503         OBJ                             0 R0000001             -8.24705e+07
    C0004503         R0000456                       -1 R0000022                        1
    C0004503         R0000288                       20 R0000478                        1
    C0004504         OBJ                             0 R0000001             -8.74531e+07
    C0004504         R0000456                       -1 R0000022                        1
    C0004504         R0000288                       20 R0000479                        1
    C0004505         OBJ                             0 R0000001             -8.91955e+07
    C0004505         R0000456                       -1 R0000023                        1
    C0004505         R0000289                       20 R0000480                        1
    C0004506         OBJ                             0 R0000001             -7.04457e+07
    C0004506         R0000456                       -1 R0000023                        1
    C0004506         R0000289                       20 R0000481                        1
    C0004507         OBJ                             0 R0000001              -6.4941e+07
    C0004507         R0000456                       -1 R0000023                        1
    C0004507         R0000289                       20 R0000482                        1
    C0004508         OBJ                             0 R0000001             -8.51362e+07
    C0004508         R0000456                       -1 R0000023                        1
    C0004508         R0000289                       20 R0000483                        1
    C0004511         OBJ                             0 R0000001             -9.76033e+07
    C0004511         R0000457                       -1 R0000004                        1
    C0004511         R0000271                       20 R0000404                        1
    C0004512         OBJ                             0 R0000001              -1.1962e+08
    C0004512         R0000457                       -1 R0000004                        1
    C0004512         R0000271                       20 R0000405                        1
    C0004513         OBJ                             0 R0000001             -1.14087e+08
    C0004513         R0000457                       -1 R0000004                        1
    C0004513         R0000271                       20 R0000406                        1
    C0004514         OBJ                             0 R0000001              -9.0514e+07
    C0004514         R0000457                       -1 R0000004                        1
    C0004514         R0000271                       20 R0000407                        1
    C0004515         OBJ                             0 R0000001             -9.27174e+07
    C0004515         R0000457                       -1 R0000005                        1
    C0004515         R0000272                       20 R0000408                        1
    C0004516         OBJ                             0 R0000001             -1.02949e+08
    C0004516         R0000457                       -1 R0000005                        1
    C0004516         R0000272                       20 R0000409                        1
    C0004517         OBJ                             0 R0000001             -1.16893e+08
    C0004517         R0000457                       -1 R0000005                        1
    C0004517         R0000272                       20 R0000410                        1
    C0004518         OBJ                             0 R0000001             -1.08173e+08
    C0004518         R0000457                       -1 R0000005                        1
    C0004518         R0000272                       20 R0000411                        1
    C0004519         OBJ                             0 R0000001             -1.14394e+08
    C0004519         R0000457                       -1 R0000006                        1
    C0004519         R0000273                       20 R0000412                        1
    MARK0001  'MARKER'                 'INTEND'
RHS
    RHS1              R0000001                        0
    RHS1              R0000456                        0
    RHS1              R0000457                        0
    RHS1              R0000004                        0
    RHS1              R0000005                        0
    RHS1              R0000022                        0
    RHS1              R0000023                        0
    RHS1              R0000271                        0
    RHS1              R0000272                        0
    RHS1              R0000288                        0
    RHS1              R0000289                        0
    RHS1              R0000006                        0
    RHS1              R0000021                        0
    RHS1              R0000273                        0
    RHS1              R0000287                        0
    RHS1              R0000404                        0
    RHS1              R0000405                        0
    RHS1              R0000406                        0
    RHS1              R0000407                        0
    RHS1              R0000408                        0
    RHS1              R0000409                        0
    RHS1              R0000410                        0
    RHS1              R0000411                        0
    RHS1              R0000412                        0
    RHS1              R0000475                        0
    RHS1              R0000476                        0
    RHS1              R0000477                        0
    RHS1              R0000478                        0
    RHS1              R0000479                        0
    RHS1              R0000480                        0
    RHS1              R0000481                        0
    RHS1              R0000482                        0
    RHS1              R0000483                        0
BOUNDS
 BV BND1              C0004500
 BV BND1              C0004501
 BV BND1              C0004502
 BV BND1              C0004503
 BV BND1              C0004504
 BV BND1              C0004505
 BV BND1              C0004506
 BV BND1              C0004507
 BV BND1              C0004508
 BV BND1              C0004511
 BV BND1              C0004512
 BV BND1              C0004513
 BV BND1              C0004514
 BV BND1              C0004515
 BV BND1              C0004516
 BV BND1              C0004517
 BV BND1              C0004518
 BV BND1              C0004519
ENDATA
