NAME          leo2_ds
OBJSENSE
 MIN
ROWS
 N  OBJ
 E  R0000001
 G  R0000002
 G  R0000004
 G  R0000010
 G  R0000011
 G  R0000027
 G  R0000030
 G  R0000031
 G  R0000043
 G  R0000048
 G  R0000049
 G  R0000050
 G  R0000052
 G  R0000058
 G  R0000059
 G  R0000075
 G  R0000078
 G  R0000079
 G  R0000091
 G  R0000096
 G  R0000097
 G  R0000535
 G  R0000538
 G  R0000542
 G  R0000544
 G  R0000550
 G  R0000551
 G  R0000567
 G  R0000570
 G  R0000571
 G  R0000583
 G  R0000588
 G  R0000589
 G  R0000042
 G  R0000090
 L  R0000335
 G  R0000541
 G  R0000582
 G  R0000047
 G  R0000095
COLUMNS
    MARK0000  'MARKER'                 'INTORG'
    C0005727         OBJ                             0 R0000001             -7.22033e+08
    C0005727         R0000002                        3 R0000004                        3
    C0005727         R0000010                        3 R0000011                        3
    C0005727         R0000027                        3 R0000030                        3
    C0005727         R0000031                        3 R0000043                        3
    C0005727         R0000048                        3 R0000049                        3
    C0005727         R0000050                        1 R0000052                        1
    C0005727         R0000058                        1 R0000059                        1
    C0005727         R0000075                        1 R0000078                        1
    C0005727         R0000079                        1 R0000091                        1
    C0005727         R0000096                        1 R0000097                        1
    C0005727         R0000535                        1 R0000538                        1
    C0005727         R0000542                        1 R0000544                        1
    C0005727         R0000550                        1 R0000551                        1
    C0005727         R0000567                        1 R0000570                        1
    C0005727         R0000571                        1 R0000583                        1
    C0005727         R0000588                        1 R0000589                        1
    C0005727         R0000042                        3 R0000090                        1
    C0005727         R0000335                        1 R0000541                        1
    C0005727         R0000582                        2
    C0005728         OBJ                             0 R0000001              -8.4727e+08
    C0005728         R0000002                        4 R0000004                        4
    C0005728         R0000010                        4 R0000011                        4
    C0005728         R0000027                        4 R0000030                        4
    C0005728         R0000031                        4 R0000043                        4
    C0005728         R0000048                        4 R0000049                        4
    C0005728         R0000050                        1 R0000052                        1
    C0005728         R0000058                        1 R0000059                        1
    C0005728         R0000075                        1 R0000078                        1
    C0005728         R0000079                        1 R0000091                        1
    C0005728         R0000096                        1 R0000097                        1
    C0005728         R0000535                        1 R0000538                        1
    C0005728         R0000542                        2 R0000544                        1
    C0005728         R0000550                        1 R0000551                        1
    C0005728         R0000567                        1 R0000570                        1
    C0005728         R0000571                        2 R0000583                        1
    C0005728         R0000588                        1 R0000589                        1
    C0005728         R0000042                        3 R0000090                        1
    C0005728         R0000335                        1 R0000541                        1
    C0005728         R0000582                        2
    C0005729         OBJ                             0 R0000001             -1.09775e+09
    C0005729         R0000002                        4 R0000004                        6
    C0005729         R0000010                        6 R0000011                        6
    C0005729         R0000027                        6 R0000030                        6
    C0005729         R0000031                        4 R0000043                        6
    C0005729         R0000048                        6 R0000049                        6
    C0005729         R0000050                        1 R0000052                        1
    C0005729         R0000058                        1 R0000059                        1
    C0005729         R0000075                        1 R0000078                        1
    C0005729         R0000079                        1 R0000091                        1
    C0005729         R0000096                        1 R0000097                        1
    C0005729         R0000535                        1 R0000538                        1
    C0005729         R0000542                        2 R0000544                        1
    C0005729         R0000550                        1 R0000551                        2
    C0005729         R0000567                        1 R0000570                        1
    C0005729         R0000571                        2 R0000583                        2
    C0005729         R0000588                        1 R0000589                        1
    C0005729         R0000042                        3 R0000090                        1
    C0005729         R0000335                        1 R0000541                        1
    C0005729         R0000582                        2
    C0005730         OBJ                             0 R0000001             -1.22298e+09
    C0005730         R0000002                        4 R0000004                        7
    C0005730         R0000010                        7 R0000011                        6
    C0005730         R0000027                        7 R0000030                        7
    C0005730         R0000031                        4 R0000043                        6
    C0005730         R0000048                        7 R0000049                        7
    C0005730         R0000050                        1 R0000052                        1
    C0005730         R0000058                        1 R0000059                        1
    C0005730         R0000075                        1 R0000078                        1
    C0005730         R0000079                        1 R0000091                        1
    C0005730         R0000096                        1 R0000097                        1
    C0005730         R0000535                        1 R0000538                        1
    C0005730         R0000542                        2 R0000544                        1
    C0005730         R0000550                        1 R0000551                        2
    C0005730         R0000567                        1 R0000570                        1
    C0005730         R0000571                        2 R0000583                        2
    C0005730         R0000588                        1 R0000589                        1
    C0005730         R0000042                        3 R0000090                        1
    C0005730         R0000335                        1 R0000541                        1
    C0005730         R0000582                        2
    C0005731         OBJ                             0 R0000001             -1.34822e+09
    C0005731         R0000002                        4 R0000004                        8
    C0005731         R0000010                        8 R0000011                        6
    C0005731         R0000027                        8 R0000030                        8
    C0005731         R0000031                        4 R0000043                        6
    C0005731         R0000048                        8 R0000049                        8
    C0005731         R0000050                        1 R0000052                        1
    C0005731         R0000058                        1 R0000059                        1
    C0005731         R0000075                        1 R0000078                        1
    C0005731         R0000079                        1 R0000091                        1
    C0005731         R0000096                        1 R0000097                        1
    C0005731         R0000535                        1 R0000538                        1
    C0005731         R0000542                        2 R0000544                        1
    C0005731         R0000550                        1 R0000551                        2
    C0005731         R0000567                        1 R0000570                        1
    C0005731         R0000571                        2 R0000583                        2
    C0005731         R0000588                        1 R0000589                        1
    C0005731         R0000042                        3 R0000090                        1
    C0005731         R0000335                        1 R0000541                        1
    C0005731         R0000582                        2
    C0005732         OBJ                             0 R0000001             -1.47346e+09
    C0005732         R0000002                        4 R0000004                        9
    C0005732         R0000010                        9 R0000011                        6
    C0005732         R0000027                        9 R0000030                        9
    C0005732         R0000031                        4 R0000043                        6
    C0005732         R0000048                        9 R0000049                        9
    C0005732         R0000050                        1 R0000052                        1
    C0005732         R0000058                        1 R0000059                        1
    C0005732         R0000075                        1 R0000078                        1
    C0005732         R0000079                        1 R0000091                        1
    C0005732         R0000096                        1 R0000097                        1
    C0005732         R0000535                        1 R0000538                        1
    C0005732         R0000542                        2 R0000544                        1
    C0005732         R0000550                        2 R0000551                        2
    C0005732         R0000567                        1 R0000570                        1
    C0005732         R0000571                        2 R0000583                        2
    C0005732         R0000588                        2 R0000589                        1
    C0005732         R0000042                        3 R0000090                        1
    C0005732         R0000335                        1 R0000541                        1
    C0005732         R0000582                        2
    C0005733         OBJ                             0 R0000001              -1.5987e+09
    C0005733         R0000002                        4 R0000004                       10
    C0005733         R0000010                        9 R0000011                        6
    C0005733         R0000027                       10 R0000030                       10
    C0005733         R0000031                        4 R0000043                        6
    C0005733         R0000048                        9 R0000049                       10
    C0005733         R0000050                        1 R0000052                        1
    C0005733         R0000058                        1 R0000059                        1
    C0005733         R0000075                        1 R0000078                        1
    C0005733         R0000079                        1 R0000091                        1
    C0005733         R0000096                        1 R0000097                        1
    C0005733         R0000535                        1 R0000538                        1
    C0005733         R0000542                        2 R0000544                        1
    C0005733         R0000550                        2 R0000551                        2
    C0005733         R0000567                        1 R0000570                        2
    C0005733         R0000571                        2 R0000583                        2
    C0005733         R0000588                        2 R0000589                        2
    C0005733         R0000042                        3 R0000090                        1
    C0005733         R0000335                        1 R0000541                        1
    C0005733         R0000582                        2
    C0005734         OBJ                             0 R0000001             -1.72393e+09
    C0005734         R0000002                        4 R0000004                       11
    C0005734         R0000010                        9 R0000011                        6
    C0005734         R0000027                       11 R0000030                       10
    C0005734         R0000031                        4 R0000043                        6
    C0005734         R0000048                        9 R0000049                       10
    C0005734         R0000050                        1 R0000052                        1
    C0005734         R0000058                        1 R0000059                        1
    C0005734         R0000075                        1 R0000078                        1
    C0005734         R0000079                        1 R0000091                        1
    C0005734         R0000096                        1 R0000097                        1
    C0005734         R0000535                        1 R0000538                        1
    C0005734         R0000542                        2 R0000544                        1
    C0005734         R0000550                        2 R0000551                        2
    C0005734         R0000567                        1 R0000570                        2
    C0005734         R0000571                        2 R0000583                        2
    C0005734         R0000588                        2 R0000589                        2
    C0005734         R0000042                        3 R0000090                        1
    C0005734         R0000335                        1 R0000541                        1
    C0005734         R0000582                        2
    C0005735         OBJ                             0 R0000001             -1.84917e+09
    C0005735         R0000002                        4 R0000004                       12
    C0005735         R0000010                        9 R0000011                        6
    C0005735         R0000027                       12 R0000030                       10
    C0005735         R0000031                        4 R0000043                        6
    C0005735         R0000048                        9 R0000049                       10
    C0005735         R0000050                        1 R0000052                        1
    C0005735         R0000058                        1 R0000059                        1
    C0005735         R0000075                        1 R0000078                        1
    C0005735         R0000079                        1 R0000091                        1
    C0005735         R0000096                        1 R0000097                        1
    C0005735         R0000535                        1 R0000538                        1
    C0005735         R0000542                        2 R0000544                        1
    C0005735         R0000550                        2 R0000551                        2
    C0005735         R0000567                        1 R0000570                        2
    C0005735         R0000571                        2 R0000583                        2
    C0005735         R0000588                        2 R0000589                        2
    C0005735         R0000042                        3 R0000090                        1
    C0005735         R0000335                        1 R0000541                        1
    C0005735         R0000582                        2
    C0005736         OBJ                             0 R0000001             -1.41638e+09
    C0005736         R0000002                        4 R0000004                        6
    C0005736         R0000010                        6 R0000011                        6
    C0005736         R0000027                        6 R0000030                        6
    C0005736         R0000031                        4 R0000043                        6
    C0005736         R0000048                        6 R0000049                        6
    C0005736         R0000050                        2 R0000052                        2
    C0005736         R0000058                        2 R0000059                        2
    C0005736         R0000075                        2 R0000078                        2
    C0005736         R0000079                        2 R0000091                        2
    C0005736         R0000096                        2 R0000097                        2
    C0005736         R0000535                        1 R0000538                        1
    C0005736         R0000542                        2 R0000544                        1
    C0005736         R0000550                        1 R0000551                        2
    C0005736         R0000567                        1 R0000570                        1
    C0005736         R0000571                        2 R0000583                        2
    C0005736         R0000588                        1 R0000589                        1
    C0005736         R0000042                        3 R0000090                        2
    C0005736         R0000335                        1 R0000541                        1
    C0005736         R0000582                        2
    C0005737         OBJ                             0 R0000001             -1.65763e+09
    C0005737         R0000002                        4 R0000004                        8
    C0005737         R0000010                        8 R0000011                        6
    C0005737         R0000027                        8 R0000030                        8
    C0005737         R0000031                        4 R0000043                        6
    C0005737         R0000048                        8 R0000049                        8
    C0005737         R0000050                        2 R0000052                        2
    C0005737         R0000058                        2 R0000059                        2
    C0005737         R0000075                        2 R0000078                        2
    C0005737         R0000079                        2 R0000091                        2
    C0005737         R0000096                        2 R0000097                        2
    C0005737         R0000535                        1 R0000538                        1
    C0005737         R0000542                        2 R0000544                        1
    C0005737         R0000550                        1 R0000551                        2
    C0005737         R0000567                        1 R0000570                        1
    C0005737         R0000571                        2 R0000583                        2
    C0005737         R0000588                        1 R0000589                        1
    C0005737         R0000042                        3 R0000090                        2
    C0005737         R0000335                        1 R0000541                        1
    C0005737         R0000582                        2
    C0005738         OBJ                             0 R0000001             -2.14013e+09
    C0005738         R0000002                        4 R0000004                       12
    C0005738         R0000010                        9 R0000011                        6
    C0005738         R0000027                       12 R0000030                       10
    C0005738         R0000031                        4 R0000043                        6
    C0005738         R0000048                        9 R0000049                       10
    C0005738         R0000050                        2 R0000052                        2
    C0005738         R0000058                        2 R0000059                        2
    C0005738         R0000075                        2 R0000078                        2
    C0005738         R0000079                        2 R0000091                        2
    C0005738         R0000096                        2 R0000097                        2
    C0005738         R0000535                        1 R0000538                        1
    C0005738         R0000542                        2 R0000544                        1
    C0005738         R0000550                        2 R0000551                        2
    C0005738         R0000567                        1 R0000570                        2
    C0005738         R0000571                        2 R0000583                        2
    C0005738         R0000588                        2 R0000589                        2
    C0005738         R0000042                        3 R0000090                        2
    C0005738         R0000335                        1 R0000541                        1
    C0005738         R0000582                        2
    C0005739         OBJ                             0 R0000001             -2.38137e+09
    C0005739         R0000002                        4 R0000004                       14
    C0005739         R0000010                        9 R0000011                        6
    C0005739         R0000027                       13 R0000030                       10
    C0005739         R0000031                        4 R0000043                        6
    C0005739         R0000048                        9 R0000049                       10
    C0005739         R0000050                        2 R0000052                        2
    C0005739         R0000058                        2 R0000059                        2
    C0005739         R0000075                        2 R0000078                        2
    C0005739         R0000079                        2 R0000091                        2
    C0005739         R0000096                        2 R0000097                        2
    C0005739         R0000535                        1 R0000538                        1
    C0005739         R0000542                        2 R0000544                        1
    C0005739         R0000550                        2 R0000551                        2
    C0005739         R0000567                        2 R0000570                        2
    C0005739         R0000571                        2 R0000583                        2
    C0005739         R0000588                        2 R0000589                        2
    C0005739         R0000042                        3 R0000090                        2
    C0005739         R0000335                        1 R0000541                        1
    C0005739         R0000582                        2
    C0005740         OBJ                             0 R0000001             -2.62262e+09
    C0005740         R0000002                        4 R0000004                       15
    C0005740         R0000010                        9 R0000011                        6
    C0005740         R0000027                       13 R0000030                       10
    C0005740         R0000031                        4 R0000043                        6
    C0005740         R0000048                        9 R0000049                       10
    C0005740         R0000050                        2 R0000052                        2
    C0005740         R0000058                        2 R0000059                        2
    C0005740         R0000075                        2 R0000078                        2
    C0005740         R0000079                        2 R0000091                        2
    C0005740         R0000096                        2 R0000097                        2
    C0005740         R0000535                        1 R0000538                        1
    C0005740         R0000542                        2 R0000544                        2
    C0005740         R0000550                        2 R0000551                        2
    C0005740         R0000567                        2 R0000570                        2
    C0005740         R0000571                        2 R0000583                        2
    C0005740         R0000588                        2 R0000589                        2
    C0005740         R0000042                        3 R0000090                        2
    C0005740         R0000335                        1 R0000541                        1
    C0005740         R0000582                        2
    C0005788         OBJ                             0 R0000001              -7.2537e+08
    C0005788         R0000002                        3 R0000004                        3
    C0005788         R0000010                        3 R0000011                        3
    C0005788         R0000027                        3 R0000030                        3
    C0005788         R0000031                        3 R0000043                        3
    C0005788         R0000048                        3 R0000049                        3
    C0005788         R0000050                        1 R0000052                        1
    C0005788         R0000058                        1 R0000059                        1
    C0005788         R0000075                        1 R0000078                        1
    C0005788         R0000079                        1 R0000091                        1
    C0005788         R0000096                        1 R0000097                        1
    C0005788         R0000535                        1 R0000538                        1
    C0005788         R0000542                        1 R0000544                        1
    C0005788         R0000550                        1 R0000551                        1
    C0005788         R0000567                        1 R0000570                        1
    C0005788         R0000571                        1 R0000583                        1
    C0005788         R0000588                        1 R0000589                        1
    C0005788         R0000047                        3 R0000095                        1
    C0005789         OBJ                             0 R0000001              -8.5095e+08
    C0005789         R0000002                        4 R0000004                        4
    C0005789         R0000010                        4 R0000011                        4
    C0005789         R0000027                        4 R0000030                        4
    C0005789         R0000031                        4 R0000043                        4
    C0005789         R0000048                        4 R0000049                        4
    C0005789         R0000050                        1 R0000052                        1
    C0005789         R0000058                        1 R0000059                        1
    C0005789         R0000075                        1 R0000078                        1
    C0005789         R0000079                        1 R0000091                        1
    C0005789         R0000096                        1 R0000097                        1
    C0005789         R0000535                        1 R0000538                        1
    C0005789         R0000542                        2 R0000544                        1
    C0005789         R0000550                        1 R0000551                        1
    C0005789         R0000567                        1 R0000570                        1
    C0005789         R0000571                        2 R0000583                        1
    C0005789         R0000588                        1 R0000589                        1
    C0005789         R0000047                        4 R0000095                        1
    C0005790         OBJ                             0 R0000001             -1.10211e+09
    C0005790         R0000002                        4 R0000004                        6
    C0005790         R0000010                        6 R0000011                        6
    C0005790         R0000027                        6 R0000030                        6
    C0005790         R0000031                        4 R0000043                        6
    C0005790         R0000048                        6 R0000049                        6
    C0005790         R0000050                        1 R0000052                        1
    C0005790         R0000058                        1 R0000059                        1
    C0005790         R0000075                        1 R0000078                        1
    C0005790         R0000079                        1 R0000091                        1
    C0005790         R0000096                        1 R0000097                        1
    C0005790         R0000535                        1 R0000538                        1
    C0005790         R0000542                        2 R0000544                        1
    C0005790         R0000550                        1 R0000551                        2
    C0005790         R0000567                        1 R0000570                        1
    C0005790         R0000571                        2 R0000583                        2
    C0005790         R0000588                        1 R0000589                        1
    C0005790         R0000047                        6 R0000095                        1
    C0005791         OBJ                             0 R0000001             -1.22769e+09
    C0005791         R0000002                        4 R0000004                        7
    C0005791         R0000010                        7 R0000011                        6
    C0005791         R0000027                        7 R0000030                        7
    C0005791         R0000031                        4 R0000043                        6
    C0005791         R0000048                        7 R0000049                        7
    C0005791         R0000050                        1 R0000052                        1
    C0005791         R0000058                        1 R0000059                        1
    C0005791         R0000075                        1 R0000078                        1
    C0005791         R0000079                        1 R0000091                        1
    C0005791         R0000096                        1 R0000097                        1
    C0005791         R0000535                        1 R0000538                        1
    C0005791         R0000542                        2 R0000544                        1
    C0005791         R0000550                        1 R0000551                        2
    C0005791         R0000567                        1 R0000570                        1
    C0005791         R0000571                        2 R0000583                        2
    C0005791         R0000588                        1 R0000589                        1
    C0005791         R0000047                        6 R0000095                        1
    MARK0001  'MARKER'                 'INTEND'
RHS
    RHS1              R0000001                        0
    RHS1              R0000002                        4
    RHS1              R0000004                       15
    RHS1              R0000010                        9
    RHS1              R0000011                        6
    RHS1              R0000027                       13
    RHS1              R0000030                       10
    RHS1              R0000031                        4
    RHS1              R0000043                        6
    RHS1              R0000048                        9
    RHS1              R0000049                       10
    RHS1              R0000050                        1
    RHS1              R0000052                        2
    RHS1              R0000058                        2
    RHS1              R0000059                        2
    RHS1              R0000075                        2
    RHS1              R0000078                        2
    RHS1              R0000079                        1
    RHS1              R0000091                        2
    RHS1              R0000096                        2
    RHS1              R0000097                        2
    RHS1              R0000535                        1
    RHS1              R0000538                        1
    RHS1              R0000542                        2
    RHS1              R0000544                        2
    RHS1              R0000550                        2
    RHS1              R0000551                        2
    RHS1              R0000567                        2
    RHS1              R0000570                        2
    RHS1              R0000571                        2
    RHS1              R0000583                        2
    RHS1              R0000588                        2
    RHS1              R0000589                        2
    RHS1              R0000042                        3
    RHS1              R0000090                        1
    RHS1              R0000335                        1
    RHS1              R0000541                        1
    RHS1              R0000582                        2
    RHS1              R0000047                        6
    RHS1              R0000095                        2
BOUNDS
 BV BND1              C0005727
 BV BND1              C0005728
 BV BND1              C0005729
 BV BND1              C0005730
 BV BND1              C0005731
 BV BND1              C0005732
 BV BND1              C0005733
 BV BND1              C0005734
 BV BND1              C0005735
 BV BND1              C0005736
 BV BND1              C0005737
 BV BND1              C0005738
 BV BND1              C0005739
 BV BND1              C0005740
 BV BND1              C0005788
 BV BND1              C0005789
 BV BND1              C0005790
 BV BND1              C0005791
ENDATA
