NAME          csched007_ds
OBJSENSE
 MIN
ROWS
 N  OBJ
 E  c02_1
 E  c04_1
 E  c01_100
 E  c01_101
 E  c01_102
 E  c01_103
 E  c01_113
 E  c01_114
 E  c01_115
 E  c01_116
 E  c01_117
 E  c01_118
 E  c01_119
 E  c01_120
 E  c01_121
 E  c01_122
 E  c01_123
 E  c01_124
 E  c01_125
 E  c01_126
 E  c01_141
 E  c01_142
 E  c01_143
 E  c01_144
 E  c01_72
 E  c01_73
 E  c01_74
 E  c01_75
 E  c01_76
 E  c01_77
 E  c01_78
 E  c01_79
 E  c01_80
 E  c01_81
 E  c01_82
 E  c01_83
 E  c01_84
 E  c01_85
COLUMNS
    MARK0000  'MARKER'                 'INTORG'
    x#1#100          OBJ                             0 c02_1                        -100
    x#1#100          c04_1                           1 c01_100                        -2
    x#1#100          c01_141                         2
    x#1#101          OBJ                             0 c02_1                        -101
    x#1#101          c04_1                           1 c01_101                        -2
    x#1#101          c01_142                         2
    x#1#102          OBJ                             0 c02_1                        -102
    x#1#102          c04_1                           1 c01_102                        -2
    x#1#102          c01_143                         2
    x#1#103          OBJ                             0 c02_1                        -103
    x#1#103          c04_1                           1 c01_103                        -2
    x#1#103          c01_144                         2
    x#1#72           OBJ                             0 c02_1                         -72
    x#1#72           c04_1                           1 c01_113                         2
    x#1#72           c01_72                         -2
    x#1#73           OBJ                             0 c02_1                         -73
    x#1#73           c04_1                           1 c01_114                         2
    x#1#73           c01_73                         -2
    x#1#74           OBJ                             0 c02_1                         -74
    x#1#74           c04_1                           1 c01_115                         2
    x#1#74           c01_74                         -2
    x#1#75           OBJ                             0 c02_1                         -75
    x#1#75           c04_1                           1 c01_116                         2
    x#1#75           c01_75                         -2
    x#1#76           OBJ                             0 c02_1                         -76
    x#1#76           c04_1                           1 c01_117                         2
    x#1#76           c01_76                         -2
    x#1#77           OBJ                             0 c02_1                         -77
    x#1#77           c04_1                           1 c01_118                         2
    x#1#77           c01_77                         -2
    x#1#78           OBJ                             0 c02_1                         -78
    x#1#78           c04_1                           1 c01_119                         2
    x#1#78           c01_78                         -2
    x#1#79           OBJ                             0 c02_1                         -79
    x#1#79           c04_1                           1 c01_120                         2
    x#1#79           c01_79                         -2
    x#1#80           OBJ                             0 c02_1                         -80
    x#1#80           c04_1                           1 c01_121                         2
    x#1#80           c01_80                         -2
    x#1#81           OBJ                             0 c02_1                         -81
    x#1#81           c04_1                           1 c01_122                         2
    x#1#81           c01_81                         -2
    x#1#82           OBJ                             0 c02_1                         -82
    x#1#82           c04_1                           1 c01_123                         2
    x#1#82           c01_82                         -2
    x#1#83           OBJ                             0 c02_1                         -83
    x#1#83           c04_1                           1 c01_124                         2
    x#1#83           c01_83                         -2
    x#1#84           OBJ                             0 c02_1                         -84
    x#1#84           c04_1                           1 c01_125                         2
    x#1#84           c01_84                         -2
    x#1#85           OBJ                             0 c02_1                         -85
    x#1#85           c04_1                           1 c01_126                         2
    x#1#85           c01_85                         -2
    MARK0001  'MARKER'                 'INTEND'
RHS
    RHS1              c02_1                           0
    RHS1              c04_1                           0
    RHS1              c01_100                         0
    RHS1              c01_101                         0
    RHS1              c01_102                         0
    RHS1              c01_103                         0
    RHS1              c01_113                         0
    RHS1              c01_114                         0
    RHS1              c01_115                         0
    RHS1              c01_116                         0
    RHS1              c01_117                         0
    RHS1              c01_118                         0
    RHS1              c01_119                         0
    RHS1              c01_120                         0
    RHS1              c01_121                         0
    RHS1              c01_122                         0
    RHS1              c01_123                         0
    RHS1              c01_124                         0
    RHS1              c01_125                         0
    RHS1              c01_126                         0
    RHS1              c01_141                         0
    RHS1              c01_142                         0
    RHS1              c01_143                         0
    RHS1              c01_144                         0
    RHS1              c01_72                          0
    RHS1              c01_73                          0
    RHS1              c01_74                          0
    RHS1              c01_75                          0
    RHS1              c01_76                          0
    RHS1              c01_77                          0
    RHS1              c01_78                          0
    RHS1              c01_79                          0
    RHS1              c01_80                          0
    RHS1              c01_81                          0
    RHS1              c01_82                          0
    RHS1              c01_83                          0
    RHS1              c01_84                          0
    RHS1              c01_85                          0
BOUNDS
 BV BND1              x#1#100
 BV BND1              x#1#101
 BV BND1              x#1#102
 BV BND1              x#1#103
 BV BND1              x#1#72
 BV BND1              x#1#73
 BV BND1              x#1#74
 BV BND1              x#1#75
 BV BND1              x#1#76
 BV BND1              x#1#77
 BV BND1              x#1#78
 BV BND1              x#1#79
 BV BND1              x#1#80
 BV BND1              x#1#81
 BV BND1              x#1#82
 BV BND1              x#1#83
 BV BND1              x#1#84
 BV BND1              x#1#85
ENDATA
