NAME          square41_ds
OBJSENSE
 MIN
ROWS
 N  OBJ
 E  c1000
 E  c1001
 E  c1002
 E  c1003
 E  c1004
 E  c1005
 E  c1006
 E  c1007
 E  c1008
 E  c1009
 E  c1010
 E  c1011
 E  c1012
 E  c1013
 E  c1014
 E  c1015
 E  c1016
 E  c1017
 E  c1018
 E  c1019
 E  c1020
 E  c1021
 E  c1030
 E  c1031
 E  c1032
 E  c1033
 E  c1034
 E  c1035
 E  c1036
 E  c1037
 E  c1038
 E  c1039
 E  c1040
 E  c1041
 E  c1042
 E  c1043
 E  c1044
 E  c1045
 E  c1046
 E  c1047
COLUMNS
    MARK0000  'MARKER'                 'INTORG'
    x_1_1_37         OBJ                             1 c1000                           1
    x_1_1_37         c1001                           1 c1002                           1
    x_1_1_37         c1003                           1 c1004                           1
    x_1_1_37         c1005                           1 c1006                           1
    x_1_1_37         c1007                           1 c1008                           1
    x_1_1_37         c1009                           1 c1010                           1
    x_1_1_37         c1011                           1 c1012                           1
    x_1_1_37         c1013                           1 c1014                           1
    x_1_1_37         c1015                           1 c1016                           1
    x_1_1_37         c1017                           1 c1018                           1
    x_1_1_37         c1019                           1 c1020                           1
    x_1_1_37         c1021                           1 c1030                           1
    x_1_1_37         c1031                           1 c1032                           1
    x_1_1_37         c1033                           1 c1034                           1
    x_1_1_37         c1035                           1 c1036                           1
    x_1_1_37         c1037                           1 c1038                           1
    x_1_1_37         c1039                           1 c1040                           1
    x_1_1_37         c1041                           1 c1042                           1
    x_1_1_37         c1043                           1 c1044                           1
    x_1_1_37         c1045                           1 c1046                           1
    x_1_1_37         c1047                           1
    x_1_2_37         OBJ                             1 c1000                           1
    x_1_2_37         c1001                           1 c1002                           1
    x_1_2_37         c1003                           1 c1004                           1
    x_1_2_37         c1005                           1 c1006                           1
    x_1_2_37         c1007                           1 c1008                           1
    x_1_2_37         c1009                           1 c1010                           1
    x_1_2_37         c1011                           1 c1012                           1
    x_1_2_37         c1013                           1 c1014                           1
    x_1_2_37         c1015                           1 c1016                           1
    x_1_2_37         c1017                           1 c1018                           1
    x_1_2_37         c1019                           1 c1020                           1
    x_1_2_37         c1021                           1 c1030                           1
    x_1_2_37         c1031                           1 c1032                           1
    x_1_2_37         c1033                           1 c1034                           1
    x_1_2_37         c1035                           1 c1036                           1
    x_1_2_37         c1037                           1 c1038                           1
    x_1_2_37         c1039                           1 c1040                           1
    x_1_2_37         c1041                           1 c1042                           1
    x_1_2_37         c1043                           1 c1044                           1
    x_1_2_37         c1045                           1 c1046                           1
    x_1_2_37         c1047                           1
    x_1_3_37         OBJ                             1 c1000                           1
    x_1_3_37         c1001                           1 c1002                           1
    x_1_3_37         c1003                           1 c1004                           1
    x_1_3_37         c1005                           1 c1006                           1
    x_1_3_37         c1007                           1 c1008                           1
    x_1_3_37         c1009                           1 c1010                           1
    x_1_3_37         c1011                           1 c1012                           1
    x_1_3_37         c1013                           1 c1014                           1
    x_1_3_37         c1015                           1 c1016                           1
    x_1_3_37         c1017                           1 c1018                           1
    x_1_3_37         c1019                           1 c1020                           1
    x_1_3_37         c1021                           1 c1030                           1
    x_1_3_37         c1031                           1 c1032                           1
    x_1_3_37         c1033                           1 c1034                           1
    x_1_3_37         c1035                           1 c1036                           1
    x_1_3_37         c1037                           1 c1038                           1
    x_1_3_37         c1039                           1 c1040                           1
    x_1_3_37         c1041                           1 c1042                           1
    x_1_3_37         c1043                           1 c1044                           1
    x_1_3_37         c1045                           1 c1046                           1
    x_1_3_37         c1047                           1
    x_1_4_37         OBJ                             1 c1000                           1
    x_1_4_37         c1001                           1 c1002                           1
    x_1_4_37         c1003                           1 c1004                           1
    x_1_4_37         c1005                           1 c1006                           1
    x_1_4_37         c1007                           1 c1008                           1
    x_1_4_37         c1009                           1 c1010                           1
    x_1_4_37         c1011                           1 c1012                           1
    x_1_4_37         c1013                           1 c1014                           1
    x_1_4_37         c1015                           1 c1016                           1
    x_1_4_37         c1017                           1 c1018                           1
    x_1_4_37         c1019                           1 c1020                           1
    x_1_4_37         c1021                           1 c1030                           1
    x_1_4_37         c1031                           1 c1032                           1
    x_1_4_37         c1033                           1 c1034                           1
    x_1_4_37         c1035                           1 c1036                           1
    x_1_4_37         c1037                           1 c1038                           1
    x_1_4_37         c1039                           1 c1040                           1
    x_1_4_37         c1041                           1 c1042                           1
    x_1_4_37         c1043                           1 c1044                           1
    x_1_4_37         c1045                           1 c1046                           1
    x_1_4_37         c1047                           1
    x_1_5_37         OBJ                             1 c1000                           1
    x_1_5_37         c1001                           1 c1002                           1
    x_1_5_37         c1003                           1 c1004                           1
    x_1_5_37         c1005                           1 c1006                           1
    x_1_5_37         c1007                           1 c1008                           1
    x_1_5_37         c1009                           1 c1010                           1
    x_1_5_37         c1011                           1 c1012                           1
    x_1_5_37         c1013                           1 c1014                           1
    x_1_5_37         c1015                           1 c1016                           1
    x_1_5_37         c1017                           1 c1018                           1
    x_1_5_37         c1019                           1 c1020                           1
    x_1_5_37         c1021                           1 c1030                           1
    x_1_5_37         c1031                           1 c1032                           1
    x_1_5_37         c1033                           1 c1034                           1
    x_1_5_37         c1035                           1 c1036                           1
    x_1_5_37         c1037                           1 c1038                           1
    x_1_5_37         c1039                           1 c1040                           1
    x_1_5_37         c1041                           1 c1042                           1
    x_1_5_37         c1043                           1 c1044                           1
    x_1_5_37         c1045                           1 c1046                           1
    x_1_5_37         c1047                           1
    x_2_1_37         OBJ                             1 c1000                           1
    x_2_1_37         c1001                           1 c1002                           1
    x_2_1_37         c1003                           1 c1004                           1
    x_2_1_37         c1005                           1 c1006                           1
    x_2_1_37         c1007                           1 c1008                           1
    x_2_1_37         c1009                           1 c1010                           1
    x_2_1_37         c1011                           1 c1012                           1
    x_2_1_37         c1013                           1 c1014                           1
    x_2_1_37         c1015                           1 c1016                           1
    x_2_1_37         c1017                           1 c1018                           1
    x_2_1_37         c1019                           1 c1020                           1
    x_2_1_37         c1021                           1 c1030                           1
    x_2_1_37         c1031                           1 c1032                           1
    x_2_1_37         c1033                           1 c1034                           1
    x_2_1_37         c1035                           1 c1036                           1
    x_2_1_37         c1037                           1 c1038                           1
    x_2_1_37         c1039                           1 c1040                           1
    x_2_1_37         c1041                           1 c1042                           1
    x_2_1_37         c1043                           1 c1044                           1
    x_2_1_37         c1045                           1 c1046                           1
    x_2_1_37         c1047                           1
    x_2_2_37         OBJ                             1 c1000                           1
    x_2_2_37         c1001                           1 c1002                           1
    x_2_2_37         c1003                           1 c1004                           1
    x_2_2_37         c1005                           1 c1006                           1
    x_2_2_37         c1007                           1 c1008                           1
    x_2_2_37         c1009                           1 c1010                           1
    x_2_2_37         c1011                           1 c1012                           1
    x_2_2_37         c1013                           1 c1014                           1
    x_2_2_37         c1015                           1 c1016                           1
    x_2_2_37         c1017                           1 c1018                           1
    x_2_2_37         c1019                           1 c1020                           1
    x_2_2_37         c1021                           1 c1030                           1
    x_2_2_37         c1031                           1 c1032                           1
    x_2_2_37         c1033                           1 c1034                           1
    x_2_2_37         c1035                           1 c1036                           1
    x_2_2_37         c1037                           1 c1038                           1
    x_2_2_37         c1039                           1 c1040                           1
    x_2_2_37         c1041                           1 c1042                           1
    x_2_2_37         c1043                           1 c1044                           1
    x_2_2_37         c1045                           1 c1046                           1
    x_2_2_37         c1047                           1
    x_2_3_37         OBJ                             1 c1000                           1
    x_2_3_37         c1001                           1 c1002                           1
    x_2_3_37         c1003                           1 c1004                           1
    x_2_3_37         c1005                           1 c1006                           1
    x_2_3_37         c1007                           1 c1008                           1
    x_2_3_37         c1009                           1 c1010                           1
    x_2_3_37         c1011                           1 c1012                           1
    x_2_3_37         c1013                           1 c1014                           1
    x_2_3_37         c1015                           1 c1016                           1
    x_2_3_37         c1017                           1 c1018                           1
    x_2_3_37         c1019                           1 c1020                           1
    x_2_3_37         c1021                           1 c1030                           1
    x_2_3_37         c1031                           1 c1032                           1
    x_2_3_37         c1033                           1 c1034                           1
    x_2_3_37         c1035                           1 c1036                           1
    x_2_3_37         c1037                           1 c1038                           1
    x_2_3_37         c1039                           1 c1040                           1
    x_2_3_37         c1041                           1 c1042                           1
    x_2_3_37         c1043                           1 c1044                           1
    x_2_3_37         c1045                           1 c1046                           1
    x_2_3_37         c1047                           1
    x_2_4_37         OBJ                             1 c1000                           1
    x_2_4_37         c1001                           1 c1002                           1
    x_2_4_37         c1003                           1 c1004                           1
    x_2_4_37         c1005                           1 c1006                           1
    x_2_4_37         c1007                           1 c1008                           1
    x_2_4_37         c1009                           1 c1010                           1
    x_2_4_37         c1011                           1 c1012                           1
    x_2_4_37         c1013                           1 c1014                           1
    x_2_4_37         c1015                           1 c1016                           1
    x_2_4_37         c1017                           1 c1018                           1
    x_2_4_37         c1019                           1 c1020                           1
    x_2_4_37         c1021                           1 c1030                           1
    x_2_4_37         c1031                           1 c1032                           1
    x_2_4_37         c1033                           1 c1034                           1
    x_2_4_37         c1035                           1 c1036                           1
    x_2_4_37         c1037                           1 c1038                           1
    x_2_4_37         c1039                           1 c1040                           1
    x_2_4_37         c1041                           1 c1042                           1
    x_2_4_37         c1043                           1 c1044                           1
    x_2_4_37         c1045                           1 c1046                           1
    x_2_4_37         c1047                           1
    x_2_5_37         OBJ                             1 c1000                           1
    x_2_5_37         c1001                           1 c1002                           1
    x_2_5_37         c1003                           1 c1004                           1
    x_2_5_37         c1005                           1 c1006                           1
    x_2_5_37         c1007                           1 c1008                           1
    x_2_5_37         c1009                           1 c1010                           1
    x_2_5_37         c1011                           1 c1012                           1
    x_2_5_37         c1013                           1 c1014                           1
    x_2_5_37         c1015                           1 c1016                           1
    x_2_5_37         c1017                           1 c1018                           1
    x_2_5_37         c1019                           1 c1020                           1
    x_2_5_37         c1021                           1 c1030                           1
    x_2_5_37         c1031                           1 c1032                           1
    x_2_5_37         c1033                           1 c1034                           1
    x_2_5_37         c1035                           1 c1036                           1
    x_2_5_37         c1037                           1 c1038                           1
    x_2_5_37         c1039                           1 c1040                           1
    x_2_5_37         c1041                           1 c1042                           1
    x_2_5_37         c1043                           1 c1044                           1
    x_2_5_37         c1045                           1 c1046                           1
    x_2_5_37         c1047                           1
    x_3_1_37         OBJ                             1 c1000                           1
    x_3_1_37         c1001                           1 c1002                           1
    x_3_1_37         c1003                           1 c1004                           1
    x_3_1_37         c1005                           1 c1006                           1
    x_3_1_37         c1007                           1 c1008                           1
    x_3_1_37         c1009                           1 c1010                           1
    x_3_1_37         c1011                           1 c1012                           1
    x_3_1_37         c1013                           1 c1014                           1
    x_3_1_37         c1015                           1 c1016                           1
    x_3_1_37         c1017                           1 c1018                           1
    x_3_1_37         c1019                           1 c1020                           1
    x_3_1_37         c1021                           1 c1030                           1
    x_3_1_37         c1031                           1 c1032                           1
    x_3_1_37         c1033                           1 c1034                           1
    x_3_1_37         c1035                           1 c1036                           1
    x_3_1_37         c1037                           1 c1038                           1
    x_3_1_37         c1039                           1 c1040                           1
    x_3_1_37         c1041                           1 c1042                           1
    x_3_1_37         c1043                           1 c1044                           1
    x_3_1_37         c1045                           1 c1046                           1
    x_3_1_37         c1047                           1
    x_3_2_37         OBJ                             1 c1000                           1
    x_3_2_37         c1001                           1 c1002                           1
    x_3_2_37         c1003                           1 c1004                           1
    x_3_2_37         c1005                           1 c1006                           1
    x_3_2_37         c1007                           1 c1008                           1
    x_3_2_37         c1009                           1 c1010                           1
    x_3_2_37         c1011                           1 c1012                           1
    x_3_2_37         c1013                           1 c1014                           1
    x_3_2_37         c1015                           1 c1016                           1
    x_3_2_37         c1017                           1 c1018                           1
    x_3_2_37         c1019                           1 c1020                           1
    x_3_2_37         c1021                           1 c1030                           1
    x_3_2_37         c1031                           1 c1032                           1
    x_3_2_37         c1033                           1 c1034                           1
    x_3_2_37         c1035                           1 c1036                           1
    x_3_2_37         c1037                           1 c1038                           1
    x_3_2_37         c1039                           1 c1040                           1
    x_3_2_37         c1041                           1 c1042                           1
    x_3_2_37         c1043                           1 c1044                           1
    x_3_2_37         c1045                           1 c1046                           1
    x_3_2_37         c1047                           1
    x_3_3_37         OBJ                             1 c1000                           1
    x_3_3_37         c1001                           1 c1002                           1
    x_3_3_37         c1003                           1 c1004                           1
    x_3_3_37         c1005                           1 c1006                           1
    x_3_3_37         c1007                           1 c1008                           1
    x_3_3_37         c1009                           1 c1010                           1
    x_3_3_37         c1011                           1 c1012                           1
    x_3_3_37         c1013                           1 c1014                           1
    x_3_3_37         c1015                           1 c1016                           1
    x_3_3_37         c1017                           1 c1018                           1
    x_3_3_37         c1019                           1 c1020                           1
    x_3_3_37         c1021                           1 c1030                           1
    x_3_3_37         c1031                           1 c1032                           1
    x_3_3_37         c1033                           1 c1034                           1
    x_3_3_37         c1035                           1 c1036                           1
    x_3_3_37         c1037                           1 c1038                           1
    x_3_3_37         c1039                           1 c1040                           1
    x_3_3_37         c1041                           1 c1042                           1
    x_3_3_37         c1043                           1 c1044                           1
    x_3_3_37         c1045                           1 c1046                           1
    x_3_3_37         c1047                           1
    x_3_4_37         OBJ                             1 c1000                           1
    x_3_4_37         c1001                           1 c1002                           1
    x_3_4_37         c1003                           1 c1004                           1
    x_3_4_37         c1005                           1 c1006                           1
    x_3_4_37         c1007                           1 c1008                           1
    x_3_4_37         c1009                           1 c1010                           1
    x_3_4_37         c1011                           1 c1012                           1
    x_3_4_37         c1013                           1 c1014                           1
    x_3_4_37         c1015                           1 c1016                           1
    x_3_4_37         c1017                           1 c1018                           1
    x_3_4_37         c1019                           1 c1020                           1
    x_3_4_37         c1021                           1 c1030                           1
    x_3_4_37         c1031                           1 c1032                           1
    x_3_4_37         c1033                           1 c1034                           1
    x_3_4_37         c1035                           1 c1036                           1
    x_3_4_37         c1037                           1 c1038                           1
    x_3_4_37         c1039                           1 c1040                           1
    x_3_4_37         c1041                           1 c1042                           1
    x_3_4_37         c1043                           1 c1044                           1
    x_3_4_37         c1045                           1 c1046                           1
    x_3_4_37         c1047                           1
    x_3_5_37         OBJ                             1 c1000                           1
    x_3_5_37         c1001                           1 c1002                           1
    x_3_5_37         c1003                           1 c1004                           1
    x_3_5_37         c1005                           1 c1006                           1
    x_3_5_37         c1007                           1 c1008                           1
    x_3_5_37         c1009                           1 c1010                           1
    x_3_5_37         c1011                           1 c1012                           1
    x_3_5_37         c1013                           1 c1014                           1
    x_3_5_37         c1015                           1 c1016                           1
    x_3_5_37         c1017                           1 c1018                           1
    x_3_5_37         c1019                           1 c1020                           1
    x_3_5_37         c1021                           1 c1030                           1
    x_3_5_37         c1031                           1 c1032                           1
    x_3_5_37         c1033                           1 c1034                           1
    x_3_5_37         c1035                           1 c1036                           1
    x_3_5_37         c1037                           1 c1038                           1
    x_3_5_37         c1039                           1 c1040                           1
    x_3_5_37         c1041                           1 c1042                           1
    x_3_5_37         c1043                           1 c1044                           1
    x_3_5_37         c1045                           1 c1046                           1
    x_3_5_37         c1047                           1
    x_4_1_37         OBJ                             1 c1000                           1
    x_4_1_37         c1001                           1 c1002                           1
    x_4_1_37         c1003                           1 c1004                           1
    x_4_1_37         c1005                           1 c1006                           1
    x_4_1_37         c1007                           1 c1008                           1
    x_4_1_37         c1009                           1 c1010                           1
    x_4_1_37         c1011                           1 c1012                           1
    x_4_1_37         c1013                           1 c1014                           1
    x_4_1_37         c1015                           1 c1016                           1
    x_4_1_37         c1017                           1 c1018                           1
    x_4_1_37         c1019                           1 c1020                           1
    x_4_1_37         c1021                           1 c1030                           1
    x_4_1_37         c1031                           1 c1032                           1
    x_4_1_37         c1033                           1 c1034                           1
    x_4_1_37         c1035                           1 c1036                           1
    x_4_1_37         c1037                           1 c1038                           1
    x_4_1_37         c1039                           1 c1040                           1
    x_4_1_37         c1041                           1 c1042                           1
    x_4_1_37         c1043                           1 c1044                           1
    x_4_1_37         c1045                           1 c1046                           1
    x_4_1_37         c1047                           1
    x_4_2_37         OBJ                             1 c1000                           1
    x_4_2_37         c1001                           1 c1002                           1
    x_4_2_37         c1003                           1 c1004                           1
    x_4_2_37         c1005                           1 c1006                           1
    x_4_2_37         c1007                           1 c1008                           1
    x_4_2_37         c1009                           1 c1010                           1
    x_4_2_37         c1011                           1 c1012                           1
    x_4_2_37         c1013                           1 c1014                           1
    x_4_2_37         c1015                           1 c1016                           1
    x_4_2_37         c1017                           1 c1018                           1
    x_4_2_37         c1019                           1 c1020                           1
    x_4_2_37         c1021                           1 c1030                           1
    x_4_2_37         c1031                           1 c1032                           1
    x_4_2_37         c1033                           1 c1034                           1
    x_4_2_37         c1035                           1 c1036                           1
    x_4_2_37         c1037                           1 c1038                           1
    x_4_2_37         c1039                           1 c1040                           1
    x_4_2_37         c1041                           1 c1042                           1
    x_4_2_37         c1043                           1 c1044                           1
    x_4_2_37         c1045                           1 c1046                           1
    x_4_2_37         c1047                           1
    x_4_3_37         OBJ                             1 c1000                           1
    x_4_3_37         c1001                           1 c1002                           1
    x_4_3_37         c1003                           1 c1004                           1
    x_4_3_37         c1005                           1 c1006                           1
    x_4_3_37         c1007                           1 c1008                           1
    x_4_3_37         c1009                           1 c1010                           1
    x_4_3_37         c1011                           1 c1012                           1
    x_4_3_37         c1013                           1 c1014                           1
    x_4_3_37         c1015                           1 c1016                           1
    x_4_3_37         c1017                           1 c1018                           1
    x_4_3_37         c1019                           1 c1020                           1
    x_4_3_37         c1021                           1 c1030                           1
    x_4_3_37         c1031                           1 c1032                           1
    x_4_3_37         c1033                           1 c1034                           1
    x_4_3_37         c1035                           1 c1036                           1
    x_4_3_37         c1037                           1 c1038                           1
    x_4_3_37         c1039                           1 c1040                           1
    x_4_3_37         c1041                           1 c1042                           1
    x_4_3_37         c1043                           1 c1044                           1
    x_4_3_37         c1045                           1 c1046                           1
    x_4_3_37         c1047                           1
    MARK0001  'MARKER'                 'INTEND'
RHS
    RHS1              c1000                           0
    RHS1              c1001                           0
    RHS1              c1002                           0
    RHS1              c1003                           0
    RHS1              c1004                           0
    RHS1              c1005                           0
    RHS1              c1006                           0
    RHS1              c1007                           0
    RHS1              c1008                           0
    RHS1              c1009                           0
    RHS1              c1010                           0
    RHS1              c1011                           0
    RHS1              c1012                           0
    RHS1              c1013                           0
    RHS1              c1014                           0
    RHS1              c1015                           0
    RHS1              c1016                           0
    RHS1              c1017                           0
    RHS1              c1018                           0
    RHS1              c1019                           0
    RHS1              c1020                           0
    RHS1              c1021                           0
    RHS1              c1030                           0
    RHS1              c1031                           0
    RHS1              c1032                           0
    RHS1              c1033                           0
    RHS1              c1034                           0
    RHS1              c1035                           0
    RHS1              c1036                           0
    RHS1              c1037                           0
    RHS1              c1038                           0
    RHS1              c1039                           0
    RHS1              c1040                           0
    RHS1              c1041                           0
    RHS1              c1042                           0
    RHS1              c1043                           0
    RHS1              c1044                           0
    RHS1              c1045                           0
    RHS1              c1046                           0
    RHS1              c1047                           0
BOUNDS
 BV BND1              x_1_1_37
 BV BND1              x_1_2_37
 BV BND1              x_1_3_37
 BV BND1              x_1_4_37
 BV BND1              x_1_5_37
 BV BND1              x_2_1_37
 BV BND1              x_2_2_37
 BV BND1              x_2_3_37
 BV BND1              x_2_4_37
 BV BND1              x_2_5_37
 BV BND1              x_3_1_37
 BV BND1              x_3_2_37
 BV BND1              x_3_3_37
 BV BND1              x_3_4_37
 BV BND1              x_3_5_37
 BV BND1              x_4_1_37
 BV BND1              x_4_2_37
 BV BND1              x_4_3_37
ENDATA
