NAME          supportcase10_ds
OBJSENSE
 MIN
ROWS
 N  OBJ
 L  c1083
 L  c1103
 L  c12178
 L  c18087
 L  c1891
 L  c19146
 L  c19350
 L  c19611
 L  c22108
 L  c24726
 L  c28214
 L  c3286
 L  c3369
 L  c5843
 L  c808
 L  c834
 L  c1006
 L  c1036
 L  c1053
 L  c1062
 L  c1180
 L  c12099
 L  c1210
 L  c12130
 L  c1221
 L  c1233
 L  c12429
 L  c12804
 L  c12836
 L  c1284
 L  c12890
 L  c12973
 L  c12986
 L  c1301
 L  c13351
 L  c1336
 L  c13454
 L  c13467
 L  c13704
 L  c14997
COLUMNS
    MARK0000  'MARKER'                 'INTORG'
    B27(3918)        OBJ                             1 c1083                          -1
    B27(3918)        c18087                         -1 c1891                          -1
    B27(3918)        c808                           -1 c1062                          -1
    B27(3918)        c1180                          -1 c12099                         -1
    B27(3918)        c1210                          -1 c1221                          -1
    B27(3918)        c12429                         -1 c12804                         -1
    B27(3918)        c12836                         -1 c1284                          -1
    B27(3918)        c12890                         -1 c12973                         -1
    B27(3918)        c1301                          -1 c1336                          -1
    B48(3918)        OBJ                             1 c1083                          -1
    B48(3918)        c1103                          -1 c18087                         -1
    B48(3918)        c1891                          -1 c19146                         -1
    B48(3918)        c19611                         -1 c28214                         -1
    B48(3918)        c3286                          -1 c3369                          -1
    B48(3918)        c5843                          -1 c808                           -1
    B48(3918)        c834                           -1 c1006                          -1
    B48(3918)        c1062                          -1 c1210                          -1
    B48(3918)        c1233                          -1 c1284                          -1
    B48(3918)        c1301                          -1 c13351                         -1
    B48(3918)        c1336                          -1 c13454                         -1
    B48(3918)        c13467                         -1 c13704                         -1
    B36(3734)        OBJ                             1 c22108                         -1
    B36(3734)        c24726                         -1 c13454                         -1
    B36(3734)        c13467                         -1
    B43(3734)        OBJ                             1 c1083                          -1
    B43(3734)        c1103                          -1 c18087                         -1
    B43(3734)        c1891                          -1 c19146                         -1
    B43(3734)        c19611                         -1 c28214                         -1
    B43(3734)        c3286                          -1 c808                           -1
    B43(3734)        c834                           -1 c1053                          -1
    B43(3734)        c1233                          -1 c12429                         -1
    B43(3734)        c1284                          -1 c12973                         -1
    B43(3734)        c12986                         -1 c1301                          -1
    B25(3554)        OBJ                             1 c12178                         -1
    B25(3554)        c19350                         -1 c3369                          -1
    B25(3554)        c5843                          -1 c12099                         -1
    B25(3554)        c13454                         -1 c13467                         -1
    B25(3554)        c13704                         -1 c14997                         -1
    B30(3554)        OBJ                             1 c1083                          -1
    B30(3554)        c1103                          -1 c18087                         -1
    B30(3554)        c19146                         -1 c19611                         -1
    B30(3554)        c28214                         -1 c1006                          -1
    B30(3554)        c1036                          -1 c1221                          -1
    B30(3554)        c1233                          -1 c12429                         -1
    B30(3554)        c12804                         -1 c1284                          -1
    B30(3554)        c12890                         -1 c13351                         -1
    B30(3554)        c13704                         -1
    B53(3378)        OBJ                             1 c1083                          -1
    B53(3378)        c1103                          -1 c12178                         -1
    B53(3378)        c18087                         -1 c19146                         -1
    B53(3378)        c19350                         -1 c19611                         -1
    B53(3378)        c28214                         -1 c3286                          -1
    B53(3378)        c3369                          -1 c5843                          -1
    B53(3378)        c834                           -1 c1006                          -1
    B53(3378)        c1053                          -1 c1062                          -1
    B53(3378)        c12099                         -1 c1210                          -1
    B53(3378)        c12130                         -1 c1233                          -1
    B53(3378)        c13351                         -1 c13454                         -1
    B53(3378)        c13467                         -1 c13704                         -1
    B53(3378)        c14997                         -1
    B34(3206)        OBJ                             1 c3286                          -1
    B34(3206)        c3369                          -1 c5843                          -1
    B34(3206)        c834                           -1 c1006                          -1
    B34(3206)        c1036                          -1 c1053                          -1
    B34(3206)        c1180                          -1 c1210                          -1
    B34(3206)        c1221                          -1 c12429                         -1
    B34(3206)        c12804                         -1 c12836                         -1
    B34(3206)        c1284                          -1 c12890                         -1
    B34(3206)        c12973                         -1 c12986                         -1
    B34(3206)        c1301                          -1 c13351                         -1
    B34(3206)        c1336                          -1 c13454                         -1
    B34(3206)        c13467                         -1
    B13(3038)        OBJ                             1 c1083                          -1
    B13(3038)        c18087                         -1 c3286                          -1
    B13(3038)        c3369                          -1 c5843                          -1
    B13(3038)        c834                           -1 c1036                          -1
    B13(3038)        c1062                          -1 c1180                          -1
    B13(3038)        c1210                          -1 c1221                          -1
    B13(3038)        c12429                         -1 c12804                         -1
    B13(3038)        c12836                         -1 c12890                         -1
    B13(3038)        c12973                         -1 c12986                         -1
    B13(3038)        c1301                          -1
    B16(3038)        OBJ                             1 c1083                          -1
    B16(3038)        c1103                          -1 c12178                         -1
    B16(3038)        c18087                         -1 c1891                          -1
    B16(3038)        c19146                         -1 c19350                         -1
    B16(3038)        c22108                         -1 c24726                         -1
    B16(3038)        c3286                          -1 c808                           -1
    B16(3038)        c834                           -1 c1036                          -1
    B16(3038)        c1053                          -1 c1180                          -1
    B16(3038)        c12130                         -1 c1301                          -1
    B16(3038)        c1336                          -1
    B38(3038)        OBJ                             1 c22108                         -1
    B38(3038)        c24726                         -1 c12804                         -1
    B38(3038)        c12836                         -1 c12890                         -1
    B38(3038)        c12973                         -1 c12986                         -1
    B38(3038)        c14997                         -1
    B63(3038)        OBJ                             1 c1103                          -1
    B63(3038)        c12178                         -1 c1891                          -1
    B63(3038)        c19146                         -1 c19350                         -1
    B63(3038)        c19611                         -1 c22108                         -1
    B63(3038)        c24726                         -1 c28214                         -1
    B63(3038)        c808                           -1 c1006                          -1
    B63(3038)        c1036                          -1 c1053                          -1
    B63(3038)        c1062                          -1 c1180                          -1
    B63(3038)        c1210                          -1 c12130                         -1
    B63(3038)        c1233                          -1 c13351                         -1
    B63(3038)        c1336                          -1 c13467                         -1
    B63(3038)        c13704                         -1
    B7(3038)         OBJ                             1 c1891                          -1
    B7(3038)         c22108                         -1 c24726                         -1
    B7(3038)         c808                           -1 c1036                          -1
    B7(3038)         c1062                          -1 c1180                          -1
    B7(3038)         c1221                          -1 c12429                         -1
    B7(3038)         c12804                         -1 c12836                         -1
    B7(3038)         c1284                          -1 c12890                         -1
    B7(3038)         c12986                         -1
    B21(2874)        OBJ                             1 c22108                         -1
    B21(2874)        c24726                         -1 c12099                         -1
    B21(2874)        c12130                         -1
    B10(2714)        OBJ                             1 c3369                          -1
    B10(2714)        c5843                          -1 c12973                         -1
    B10(2714)        c12986                         -1 c14997                         -1
    B19(2714)        OBJ                             1 c12178                         -1
    B19(2714)        c19350                         -1 c12099                         -1
    B19(2714)        c14997                         -1
    B3(2714)         OBJ                             1 c1103                          -1
    B3(2714)         c12178                         -1 c1891                          -1
    B3(2714)         c19146                         -1 c19350                         -1
    B3(2714)         c19611                         -1 c28214                         -1
    B3(2714)         c3286                          -1 c3369                          -1
    B3(2714)         c5843                          -1 c808                           -1
    B3(2714)         c834                           -1 c1006                          -1
    B3(2714)         c1053                          -1 c12130                         -1
    B3(2714)         c1221                          -1 c1233                          -1
    B3(2714)         c13351                         -1 c1336                          -1
    B3(2714)         c13454                         -1 c13704                         -1
    B47(2714)        OBJ                             1 c12178                         -1
    B47(2714)        c19350                         -1 c19611                         -1
    B47(2714)        c22108                         -1 c24726                         -1
    B47(2714)        c28214                         -1 c12099                         -1
    B47(2714)        c12130                         -1 c12836                         -1
    B47(2714)        c14997                         -1
    MARK0001  'MARKER'                 'INTEND'
RHS
    RHS1              c1083                           0
    RHS1              c1103                           0
    RHS1              c12178                          0
    RHS1              c18087                          0
    RHS1              c1891                           0
    RHS1              c19146                          0
    RHS1              c19350                          0
    RHS1              c19611                          0
    RHS1              c22108                          0
    RHS1              c24726                          0
    RHS1              c28214                          0
    RHS1              c3286                           0
    RHS1              c3369                           0
    RHS1              c5843                           0
    RHS1              c808                            0
    RHS1              c834                            0
    RHS1              c1006                           0
    RHS1              c1036                           0
    RHS1              c1053                           0
    RHS1              c1062                           0
    RHS1              c1180                           0
    RHS1              c12099                          0
    RHS1              c1210                           0
    RHS1              c12130                          0
    RHS1              c1221                           0
    RHS1              c1233                           0
    RHS1              c12429                          0
    RHS1              c12804                          0
    RHS1              c12836                          0
    RHS1              c1284                           0
    RHS1              c12890                          0
    RHS1              c12973                          0
    RHS1              c12986                          0
    RHS1              c1301                           0
    RHS1              c13351                          0
    RHS1              c1336                           0
    RHS1              c13454                          0
    RHS1              c13467                          0
    RHS1              c13704                          0
    RHS1              c14997                          0
BOUNDS
 BV BND1              B27(3918)
 BV BND1              B48(3918)
 BV BND1              B36(3734)
 BV BND1              B43(3734)
 BV BND1              B25(3554)
 BV BND1              B30(3554)
 BV BND1              B53(3378)
 BV BND1              B34(3206)
 BV BND1              B13(3038)
 BV BND1              B16(3038)
 BV BND1              B38(3038)
 BV BND1              B63(3038)
 BV BND1              B7(3038)
 BV BND1              B21(2874)
 BV BND1              B10(2714)
 BV BND1              B19(2714)
 BV BND1              B3(2714)
 BV BND1              B47(2714)
ENDATA
