NAME          glass-sc_ds
OBJSENSE
 MIN
ROWS
 N  OBJ
 G  c275
 G  c1241
 G  c1243
 G  c1244
 G  c18
 G  c2365
 G  c272
 G  c273
 G  c274
 G  c291
 G  c3106
 G  c3111
 G  c3112
 G  c3113
 G  c3115
 G  c3116
 G  c3117
 G  c3118
 G  c3119
 G  c3120
 G  c3121
 G  c3122
 G  c3123
 G  c3125
 G  c3126
 G  c3127
 G  c3128
 G  c32
 G  c3222
 G  c379
 G  c38
 G  c41
 G  c42
 G  c44
 G  c562
 G  c5901
 G  c5902
 G  c5903
 G  c110
 G  c115
COLUMNS
    MARK0000  'MARKER'                 'INTORG'
    x171             OBJ                             1 c275                            1
    x171             c2365                           1 c291                            1
    x171             c3106                           1 c3111                           1
    x171             c3112                           1 c3113                           1
    x171             c3115                           1 c3116                           1
    x171             c3117                           1 c3118                           1
    x171             c3119                           1 c3120                           1
    x171             c3121                           1 c3122                           1
    x171             c3123                           1 c3125                           1
    x171             c3126                           1 c3127                           1
    x171             c3128                           1 c32                             1
    x171             c3222                           1 c379                            1
    x171             c38                             1 c41                             1
    x171             c42                             1 c44                             1
    x171             c5901                           1 c5902                           1
    x171             c5903                           1
    x151             OBJ                             1 c1241                           1
    x151             c1243                           1 c1244                           1
    x151             c18                             1 c3106                           1
    x151             c3111                           1 c3112                           1
    x151             c3113                           1 c3115                           1
    x151             c3116                           1 c3117                           1
    x151             c3118                           1 c3119                           1
    x151             c3120                           1 c3121                           1
    x151             c3122                           1 c3123                           1
    x151             c3125                           1 c3126                           1
    x151             c3127                           1 c3128                           1
    x151             c379                            1 c38                             1
    x151             c41                             1 c42                             1
    x151             c44                             1 c110                            1
    x151             c115                            1
    x176             OBJ                             1 c2365                           1
    x176             c32                             1 c379                            1
    x176             c38                             1 c41                             1
    x176             c42                             1 c5901                           1
    x176             c5902                           1 c5903                           1
    x150             OBJ                             1 c275                            1
    x150             c18                             1 c272                            1
    x150             c273                            1 c274                            1
    x150             c291                            1 c32                             1
    x150             c38                             1 c41                             1
    x150             c42                             1 c44                             1
    x150             c110                            1 c115                            1
    x130             OBJ                             1 c275                            1
    x130             c1241                           1 c1243                           1
    x130             c1244                           1 c18                             1
    x130             c2365                           1 c272                            1
    x130             c273                            1 c274                            1
    x130             c291                            1 c3106                           1
    x130             c3111                           1 c3112                           1
    x130             c3113                           1 c3115                           1
    x130             c3116                           1 c3117                           1
    x130             c3118                           1 c3119                           1
    x130             c3120                           1 c3121                           1
    x130             c3122                           1 c3123                           1
    x130             c3125                           1 c3126                           1
    x130             c3127                           1 c3128                           1
    x130             c32                             1 c3222                           1
    x130             c379                            1 c38                             1
    x130             c41                             1 c42                             1
    x130             c44                             1
    x152             OBJ                             1 c275                            1
    x152             c18                             1 c2365                           1
    x152             c272                            1 c273                            1
    x152             c274                            1 c291                            1
    x152             c3222                           1 c38                             1
    x152             c41                             1 c42                             1
    x152             c44                             1
    x173             OBJ                             1 c2365                           1
    x173             c3106                           1 c3115                           1
    x173             c3116                           1 c3117                           1
    x173             c379                            1 c562                            1
    x173             c5901                           1 c5902                           1
    x173             c5903                           1 c110                            1
    x173             c115                            1
    x149             OBJ                             1 c275                            1
    x149             c272                            1 c273                            1
    x149             c274                            1 c291                            1
    x149             c562                            1 c5901                           1
    x149             c5902                           1 c5903                           1
    x149             c110                            1 c115                            1
    x202             OBJ                             1 c1241                           1
    x202             c3111                           1 c3112                           1
    x202             c3113                           1 c3118                           1
    x202             c3119                           1 c3120                           1
    x202             c3121                           1 c3122                           1
    x202             c3123                           1 c3127                           1
    x202             c3128                           1 c3222                           1
    x202             c110                            1 c115                            1
    x169             OBJ                             1 c1243                           1
    x169             c1244                           1 c18                             1
    x169             c2365                           1 c291                            1
    x169             c3106                           1 c3125                           1
    x169             c3126                           1 c32                             1
    x169             c379                            1 c38                             1
    x169             c44                             1 c562                            1
    x169             c5901                           1 c5902                           1
    x169             c5903                           1
    x107             OBJ                             1 c275                            1
    x107             c1241                           1 c1243                           1
    x107             c1244                           1 c18                             1
    x107             c2365                           1 c272                            1
    x107             c273                            1 c274                            1
    x107             c3106                           1 c3111                           1
    x107             c3112                           1 c3113                           1
    x107             c3115                           1 c3116                           1
    x107             c3117                           1 c3118                           1
    x107             c3119                           1 c3120                           1
    x107             c3121                           1 c3122                           1
    x107             c3123                           1 c3125                           1
    x107             c3126                           1 c3127                           1
    x107             c3128                           1 c379                            1
    x107             c562                            1 c5901                           1
    x107             c5902                           1 c5903                           1
    x107             c110                            1
    x132             OBJ                             1 c1241                           1
    x132             c1243                           1 c1244                           1
    x132             c2365                           1 c32                             1
    x132             c3222                           1 c41                             1
    x132             c42                             1 c44                             1
    x132             c562                            1
    x160             OBJ                             1 c3222                           1
    x160             c562                            1 c5901                           1
    x160             c5902                           1 c5903                           1
    x172             OBJ                             1 c275                            1
    x172             c1241                           1 c1243                           1
    x172             c1244                           1 c18                             1
    x172             c272                            1 c273                            1
    x172             c274                            1 c291                            1
    x172             c32                             1 c3222                           1
    x172             c38                             1 c41                             1
    x172             c42                             1 c44                             1
    x110             OBJ                             1 c275                            1
    x110             c272                            1 c273                            1
    x110             c274                            1 c32                             1
    x110             c379                            1 c562                            1
    x158             OBJ                             1 c1241                           1
    x158             c1243                           1 c1244                           1
    x158             c3111                           1 c3112                           1
    x158             c3113                           1 c3115                           1
    x158             c3116                           1 c3117                           1
    x158             c3118                           1 c3119                           1
    x158             c3120                           1 c3121                           1
    x158             c3122                           1 c3123                           1
    x158             c3125                           1 c3126                           1
    x158             c3127                           1 c3128                           1
    x158             c3222                           1
    x129             OBJ                             1 c291                            1
    x129             c3106                           1 c3111                           1
    x129             c3112                           1 c3113                           1
    x129             c3115                           1 c3116                           1
    x129             c3117                           1 c3118                           1
    x129             c3119                           1 c3120                           1
    x129             c3121                           1 c3122                           1
    x129             c3123                           1 c3125                           1
    x129             c3126                           1 c3127                           1
    x129             c3128                           1 c115                            1
    x212             OBJ                             1 c275                            1
    x212             c1241                           1 c1243                           1
    x212             c1244                           1 c18                             1
    x212             c272                            1 c273                            1
    x212             c274                            1 c3106                           1
    x212             c3111                           1 c3112                           1
    x212             c3113                           1 c3115                           1
    x212             c3116                           1 c3117                           1
    x212             c3118                           1 c3119                           1
    x212             c3120                           1 c3121                           1
    x212             c3122                           1 c3123                           1
    x212             c3125                           1 c3126                           1
    x212             c3127                           1 c3128                           1
    x212             c562                            1 c5901                           1
    x212             c5902                           1 c5903                           1
    x212             c110                            1 c115                            1
    MARK0001  'MARKER'                 'INTEND'
RHS
    RHS1              c275                            0
    RHS1              c1241                           0
    RHS1              c1243                           0
    RHS1              c1244                           0
    RHS1              c18                             0
    RHS1              c2365                           0
    RHS1              c272                            0
    RHS1              c273                            0
    RHS1              c274                            0
    RHS1              c291                            0
    RHS1              c3106                           0
    RHS1              c3111                           0
    RHS1              c3112                           0
    RHS1              c3113                           0
    RHS1              c3115                           0
    RHS1              c3116                           0
    RHS1              c3117                           0
    RHS1              c3118                           0
    RHS1              c3119                           0
    RHS1              c3120                           0
    RHS1              c3121                           0
    RHS1              c3122                           0
    RHS1              c3123                           0
    RHS1              c3125                           0
    RHS1              c3126                           0
    RHS1              c3127                           0
    RHS1              c3128                           0
    RHS1              c32                             0
    RHS1              c3222                           0
    RHS1              c379                            0
    RHS1              c38                             0
    RHS1              c41                             0
    RHS1              c42                             0
    RHS1              c44                             0
    RHS1              c562                            0
    RHS1              c5901                           0
    RHS1              c5902                           0
    RHS1              c5903                           0
    RHS1              c110                            0
    RHS1              c115                            0
BOUNDS
 BV BND1              x171
 BV BND1              x151
 BV BND1              x176
 BV BND1              x150
 BV BND1              x130
 BV BND1              x152
 BV BND1              x173
 BV BND1              x149
 BV BND1              x202
 BV BND1              x169
 BV BND1              x107
 BV BND1              x132
 BV BND1              x160
 BV BND1              x172
 BV BND1              x110
 BV BND1              x158
 BV BND1              x129
 BV BND1              x212
ENDATA
