NAME          neos-3402454-bohle_ds
OBJSENSE
 MIN
ROWS
 N  OBJ
 E  R0013
 E  R0020
 G  R0001
 G  R0002
 G  R0003
 G  R0004
 E  R0069
 E  R0076
 E  R0077
 E  R0078
 E  R0079
 E  R0080
 G  R0005
 E  R0081
 G  R0409
 G  R0416
 G  R0465
 G  R0472
 L  R1007641
 L  R1007642
 L  R1007643
 L  R1007644
 L  R1007645
 L  R1007646
 L  R1007704
 L  R1007705
 L  R1007706
 L  R1007707
 L  R1007708
 L  R1007709
 L  R1007710
 L  R1007711
 L  R1007712
 L  R1007713
 L  R1007714
 L  R1007715
 L  R1007716
 L  R1008117
 L  R1008118
 L  R1008119
COLUMNS
    MARK0000  'MARKER'                 'INTORG'
    C0289            OBJ                             0 R0013                           1
    C0289            R0001                           1 R0077                          25
    C0289            R0409                          -1 R0416                          -1
    C0296            OBJ                             0 R0020                           1
    C0296            R0001                           1 R0077                          25
    C0296            R0465                          -1 R0472                          -1
    C0345            OBJ                             0 R0001                           1
    C0345            R0069                           1 R0077                          25
    C0345            R0409                          -1 R0465                          -1
    C0352            OBJ                             0 R0001                           1
    C0352            R0076                           1 R0077                          25
    C0352            R0416                          -1 R0472                          -1
    C0353            OBJ                             0 R0013                           1
    C0353            R0002                           1 R0078                         125
    C0353            R1007641                        1 R1007642                        1
    C0353            R1007643                        1 R1007644                        1
    C0353            R1007645                        1 R1007646                        1
    C0353            R1008117                        1 R1008118                        1
    C0353            R1008119                        1
    C0360            OBJ                             0 R0020                           1
    C0360            R0002                           1 R0078                         125
    C0360            R1007704                        1 R1007705                        1
    C0360            R1007706                        1 R1007707                        1
    C0360            R1007708                        1 R1007709                        1
    C0360            R1007710                        1 R1007711                        1
    C0360            R1007712                        1 R1007713                        1
    C0360            R1007714                        1 R1007715                        1
    C0360            R1007716                        1
    C0409            OBJ                             0 R0002                           1
    C0409            R0069                           1 R0078                         125
    C0416            OBJ                             0 R0002                           1
    C0416            R0076                           1 R0078                         125
    C0417            OBJ                             0 R0013                           1
    C0417            R0003                           1 R0079                         125
    C0424            OBJ                             0 R0020                           1
    C0424            R0003                           1 R0079                         125
    C0473            OBJ                             0 R0003                           1
    C0473            R0069                           1 R0079                         125
    C0473            R1007641                        1 R1007642                        1
    C0473            R1007643                        1 R1007644                        1
    C0473            R1007645                        1 R1007646                        1
    C0473            R1007704                        1 R1007705                        1
    C0473            R1007706                        1 R1007707                        1
    C0473            R1007708                        1 R1007709                        1
    C0473            R1007710                        1 R1007711                        1
    C0473            R1007712                        1 R1007713                        1
    C0473            R1007714                        1 R1007715                        1
    C0473            R1007716                        1
    C0480            OBJ                             0 R0003                           1
    C0480            R0076                           1 R0079                         125
    C0480            R1008117                        1 R1008118                        1
    C0480            R1008119                        1
    C0481            OBJ                             0 R0013                           1
    C0481            R0004                           1 R0080                         125
    C0488            OBJ                             0 R0020                           1
    C0488            R0004                           1 R0080                         125
    C0537            OBJ                             0 R0004                           1
    C0537            R0069                           1 R0080                         125
    C0544            OBJ                             0 R0004                           1
    C0544            R0076                           1 R0080                         125
    C0545            OBJ                             0 R0013                           1
    C0545            R0005                           1 R0081                         125
    C0552            OBJ                             0 R0020                           1
    C0552            R0005                           1 R0081                         125
    MARK0001  'MARKER'                 'INTEND'
RHS
    RHS1              R0013                           1
    RHS1              R0020                           1
    RHS1              R0001                           1
    RHS1              R0002                           1
    RHS1              R0003                           1
    RHS1              R0004                           1
    RHS1              R0069                           1
    RHS1              R0076                           1
    RHS1              R0077                          56
    RHS1              R0078                         304
    RHS1              R0079                         232
    RHS1              R0080                        1304
    RHS1              R0005                           1
    RHS1              R0081                         192
    RHS1              R0409                          -1
    RHS1              R0416                          -1
    RHS1              R0465                          -1
    RHS1              R0472                          -1
    RHS1              R1007641                        1
    RHS1              R1007642                        1
    RHS1              R1007643                        1
    RHS1              R1007644                        1
    RHS1              R1007645                        1
    RHS1              R1007646                        1
    RHS1              R1007704                        1
    RHS1              R1007705                        1
    RHS1              R1007706                        1
    RHS1              R1007707                        1
    RHS1              R1007708                        1
    RHS1              R1007709                        1
    RHS1              R1007710                        1
    RHS1              R1007711                        1
    RHS1              R1007712                        1
    RHS1              R1007713                        1
    RHS1              R1007714                        1
    RHS1              R1007715                        1
    RHS1              R1007716                        1
    RHS1              R1008117                        1
    RHS1              R1008118                        1
    RHS1              R1008119                        1
BOUNDS
 BV BND1              C0289
 BV BND1              C0296
 BV BND1              C0345
 BV BND1              C0352
 BV BND1              C0353
 BV BND1              C0360
 BV BND1              C0409
 BV BND1              C0416
 BV BND1              C0417
 BV BND1              C0424
 BV BND1              C0473
 BV BND1              C0480
 BV BND1              C0481
 BV BND1              C0488
 BV BND1              C0537
 BV BND1              C0544
 BV BND1              C0545
 BV BND1              C0552
ENDATA
