NAME          square47_ds
OBJSENSE
 MIN
ROWS
 N  OBJ
 E  c1000
 E  c1001
 E  c1002
 E  c1003
 E  c1004
 E  c1005
 E  c1006
 E  c1007
 E  c1008
 E  c1009
 E  c1010
 E  c1011
 E  c1012
 E  c1013
 E  c1014
 E  c1015
 E  c1016
 E  c1017
 E  c1018
 E  c1019
 E  c1020
 E  c1021
 E  c1022
 E  c1023
 E  c1024
 E  c1025
 E  c1026
 E  c1027
 E  c1028
 E  c1029
 E  c1030
 E  c1039
 E  c1040
 E  c1041
 E  c1042
 E  c1043
 E  c1044
 E  c1045
 E  c1046
 E  c1047
COLUMNS
    MARK0000  'MARKER'                 'INTORG'
    x_1_1_43         OBJ                             1 c1000                           1
    x_1_1_43         c1001                           1 c1002                           1
    x_1_1_43         c1003                           1 c1004                           1
    x_1_1_43         c1005                           1 c1006                           1
    x_1_1_43         c1007                           1 c1008                           1
    x_1_1_43         c1009                           1 c1010                           1
    x_1_1_43         c1011                           1 c1012                           1
    x_1_1_43         c1013                           1 c1014                           1
    x_1_1_43         c1015                           1 c1016                           1
    x_1_1_43         c1017                           1 c1018                           1
    x_1_1_43         c1019                           1 c1020                           1
    x_1_1_43         c1021                           1 c1022                           1
    x_1_1_43         c1023                           1 c1024                           1
    x_1_1_43         c1025                           1 c1026                           1
    x_1_1_43         c1027                           1 c1028                           1
    x_1_1_43         c1029                           1 c1030                           1
    x_1_1_43         c1039                           1 c1040                           1
    x_1_1_43         c1041                           1 c1042                           1
    x_1_1_43         c1043                           1 c1044                           1
    x_1_1_43         c1045                           1 c1046                           1
    x_1_1_43         c1047                           1
    x_1_2_43         OBJ                             1 c1000                           1
    x_1_2_43         c1001                           1 c1002                           1
    x_1_2_43         c1003                           1 c1004                           1
    x_1_2_43         c1005                           1 c1006                           1
    x_1_2_43         c1007                           1 c1008                           1
    x_1_2_43         c1009                           1 c1010                           1
    x_1_2_43         c1011                           1 c1012                           1
    x_1_2_43         c1013                           1 c1014                           1
    x_1_2_43         c1015                           1 c1016                           1
    x_1_2_43         c1017                           1 c1018                           1
    x_1_2_43         c1019                           1 c1020                           1
    x_1_2_43         c1021                           1 c1022                           1
    x_1_2_43         c1023                           1 c1024                           1
    x_1_2_43         c1025                           1 c1026                           1
    x_1_2_43         c1027                           1 c1028                           1
    x_1_2_43         c1029                           1 c1030                           1
    x_1_2_43         c1039                           1 c1040                           1
    x_1_2_43         c1041                           1 c1042                           1
    x_1_2_43         c1043                           1 c1044                           1
    x_1_2_43         c1045                           1 c1046                           1
    x_1_2_43         c1047                           1
    x_1_3_43         OBJ                             1 c1000                           1
    x_1_3_43         c1001                           1 c1002                           1
    x_1_3_43         c1003                           1 c1004                           1
    x_1_3_43         c1005                           1 c1006                           1
    x_1_3_43         c1007                           1 c1008                           1
    x_1_3_43         c1009                           1 c1010                           1
    x_1_3_43         c1011                           1 c1012                           1
    x_1_3_43         c1013                           1 c1014                           1
    x_1_3_43         c1015                           1 c1016                           1
    x_1_3_43         c1017                           1 c1018                           1
    x_1_3_43         c1019                           1 c1020                           1
    x_1_3_43         c1021                           1 c1022                           1
    x_1_3_43         c1023                           1 c1024                           1
    x_1_3_43         c1025                           1 c1026                           1
    x_1_3_43         c1027                           1 c1028                           1
    x_1_3_43         c1029                           1 c1030                           1
    x_1_3_43         c1039                           1 c1040                           1
    x_1_3_43         c1041                           1 c1042                           1
    x_1_3_43         c1043                           1 c1044                           1
    x_1_3_43         c1045                           1 c1046                           1
    x_1_3_43         c1047                           1
    x_1_4_43         OBJ                             1 c1000                           1
    x_1_4_43         c1001                           1 c1002                           1
    x_1_4_43         c1003                           1 c1004                           1
    x_1_4_43         c1005                           1 c1006                           1
    x_1_4_43         c1007                           1 c1008                           1
    x_1_4_43         c1009                           1 c1010                           1
    x_1_4_43         c1011                           1 c1012                           1
    x_1_4_43         c1013                           1 c1014                           1
    x_1_4_43         c1015                           1 c1016                           1
    x_1_4_43         c1017                           1 c1018                           1
    x_1_4_43         c1019                           1 c1020                           1
    x_1_4_43         c1021                           1 c1022                           1
    x_1_4_43         c1023                           1 c1024                           1
    x_1_4_43         c1025                           1 c1026                           1
    x_1_4_43         c1027                           1 c1028                           1
    x_1_4_43         c1029                           1 c1030                           1
    x_1_4_43         c1039                           1 c1040                           1
    x_1_4_43         c1041                           1 c1042                           1
    x_1_4_43         c1043                           1 c1044                           1
    x_1_4_43         c1045                           1 c1046                           1
    x_1_4_43         c1047                           1
    x_1_5_43         OBJ                             1 c1000                           1
    x_1_5_43         c1001                           1 c1002                           1
    x_1_5_43         c1003                           1 c1004                           1
    x_1_5_43         c1005                           1 c1006                           1
    x_1_5_43         c1007                           1 c1008                           1
    x_1_5_43         c1009                           1 c1010                           1
    x_1_5_43         c1011                           1 c1012                           1
    x_1_5_43         c1013                           1 c1014                           1
    x_1_5_43         c1015                           1 c1016                           1
    x_1_5_43         c1017                           1 c1018                           1
    x_1_5_43         c1019                           1 c1020                           1
    x_1_5_43         c1021                           1 c1022                           1
    x_1_5_43         c1023                           1 c1024                           1
    x_1_5_43         c1025                           1 c1026                           1
    x_1_5_43         c1027                           1 c1028                           1
    x_1_5_43         c1029                           1 c1030                           1
    x_1_5_43         c1039                           1 c1040                           1
    x_1_5_43         c1041                           1 c1042                           1
    x_1_5_43         c1043                           1 c1044                           1
    x_1_5_43         c1045                           1 c1046                           1
    x_1_5_43         c1047                           1
    x_2_1_43         OBJ                             1 c1000                           1
    x_2_1_43         c1001                           1 c1002                           1
    x_2_1_43         c1003                           1 c1004                           1
    x_2_1_43         c1005                           1 c1006                           1
    x_2_1_43         c1007                           1 c1008                           1
    x_2_1_43         c1009                           1 c1010                           1
    x_2_1_43         c1011                           1 c1012                           1
    x_2_1_43         c1013                           1 c1014                           1
    x_2_1_43         c1015                           1 c1016                           1
    x_2_1_43         c1017                           1 c1018                           1
    x_2_1_43         c1019                           1 c1020                           1
    x_2_1_43         c1021                           1 c1022                           1
    x_2_1_43         c1023                           1 c1024                           1
    x_2_1_43         c1025                           1 c1026                           1
    x_2_1_43         c1027                           1 c1028                           1
    x_2_1_43         c1029                           1 c1030                           1
    x_2_1_43         c1039                           1 c1040                           1
    x_2_1_43         c1041                           1 c1042                           1
    x_2_1_43         c1043                           1 c1044                           1
    x_2_1_43         c1045                           1 c1046                           1
    x_2_1_43         c1047                           1
    x_2_2_43         OBJ                             1 c1000                           1
    x_2_2_43         c1001                           1 c1002                           1
    x_2_2_43         c1003                           1 c1004                           1
    x_2_2_43         c1005                           1 c1006                           1
    x_2_2_43         c1007                           1 c1008                           1
    x_2_2_43         c1009                           1 c1010                           1
    x_2_2_43         c1011                           1 c1012                           1
    x_2_2_43         c1013                           1 c1014                           1
    x_2_2_43         c1015                           1 c1016                           1
    x_2_2_43         c1017                           1 c1018                           1
    x_2_2_43         c1019                           1 c1020                           1
    x_2_2_43         c1021                           1 c1022                           1
    x_2_2_43         c1023                           1 c1024                           1
    x_2_2_43         c1025                           1 c1026                           1
    x_2_2_43         c1027                           1 c1028                           1
    x_2_2_43         c1029                           1 c1030                           1
    x_2_2_43         c1039                           1 c1040                           1
    x_2_2_43         c1041                           1 c1042                           1
    x_2_2_43         c1043                           1 c1044                           1
    x_2_2_43         c1045                           1 c1046                           1
    x_2_2_43         c1047                           1
    x_2_3_43         OBJ                             1 c1000                           1
    x_2_3_43         c1001                           1 c1002                           1
    x_2_3_43         c1003                           1 c1004                           1
    x_2_3_43         c1005                           1 c1006                           1
    x_2_3_43         c1007                           1 c1008                           1
    x_2_3_43         c1009                           1 c1010                           1
    x_2_3_43         c1011                           1 c1012                           1
    x_2_3_43         c1013                           1 c1014                           1
    x_2_3_43         c1015                           1 c1016                           1
    x_2_3_43         c1017                           1 c1018                           1
    x_2_3_43         c1019                           1 c1020                           1
    x_2_3_43         c1021                           1 c1022                           1
    x_2_3_43         c1023                           1 c1024                           1
    x_2_3_43         c1025                           1 c1026                           1
    x_2_3_43         c1027                           1 c1028                           1
    x_2_3_43         c1029                           1 c1030                           1
    x_2_3_43         c1039                           1 c1040                           1
    x_2_3_43         c1041                           1 c1042                           1
    x_2_3_43         c1043                           1 c1044                           1
    x_2_3_43         c1045                           1 c1046                           1
    x_2_3_43         c1047                           1
    x_2_4_43         OBJ                             1 c1000                           1
    x_2_4_43         c1001                           1 c1002                           1
    x_2_4_43         c1003                           1 c1004                           1
    x_2_4_43         c1005                           1 c1006                           1
    x_2_4_43         c1007                           1 c1008                           1
    x_2_4_43         c1009                           1 c1010                           1
    x_2_4_43         c1011                           1 c1012                           1
    x_2_4_43         c1013                           1 c1014                           1
    x_2_4_43         c1015                           1 c1016                           1
    x_2_4_43         c1017                           1 c1018                           1
    x_2_4_43         c1019                           1 c1020                           1
    x_2_4_43         c1021                           1 c1022                           1
    x_2_4_43         c1023                           1 c1024                           1
    x_2_4_43         c1025                           1 c1026                           1
    x_2_4_43         c1027                           1 c1028                           1
    x_2_4_43         c1029                           1 c1030                           1
    x_2_4_43         c1039                           1 c1040                           1
    x_2_4_43         c1041                           1 c1042                           1
    x_2_4_43         c1043                           1 c1044                           1
    x_2_4_43         c1045                           1 c1046                           1
    x_2_4_43         c1047                           1
    x_2_5_43         OBJ                             1 c1000                           1
    x_2_5_43         c1001                           1 c1002                           1
    x_2_5_43         c1003                           1 c1004                           1
    x_2_5_43         c1005                           1 c1006                           1
    x_2_5_43         c1007                           1 c1008                           1
    x_2_5_43         c1009                           1 c1010                           1
    x_2_5_43         c1011                           1 c1012                           1
    x_2_5_43         c1013                           1 c1014                           1
    x_2_5_43         c1015                           1 c1016                           1
    x_2_5_43         c1017                           1 c1018                           1
    x_2_5_43         c1019                           1 c1020                           1
    x_2_5_43         c1021                           1 c1022                           1
    x_2_5_43         c1023                           1 c1024                           1
    x_2_5_43         c1025                           1 c1026                           1
    x_2_5_43         c1027                           1 c1028                           1
    x_2_5_43         c1029                           1 c1030                           1
    x_2_5_43         c1039                           1 c1040                           1
    x_2_5_43         c1041                           1 c1042                           1
    x_2_5_43         c1043                           1 c1044                           1
    x_2_5_43         c1045                           1 c1046                           1
    x_2_5_43         c1047                           1
    x_3_1_43         OBJ                             1 c1000                           1
    x_3_1_43         c1001                           1 c1002                           1
    x_3_1_43         c1003                           1 c1004                           1
    x_3_1_43         c1005                           1 c1006                           1
    x_3_1_43         c1007                           1 c1008                           1
    x_3_1_43         c1009                           1 c1010                           1
    x_3_1_43         c1011                           1 c1012                           1
    x_3_1_43         c1013                           1 c1014                           1
    x_3_1_43         c1015                           1 c1016                           1
    x_3_1_43         c1017                           1 c1018                           1
    x_3_1_43         c1019                           1 c1020                           1
    x_3_1_43         c1021                           1 c1022                           1
    x_3_1_43         c1023                           1 c1024                           1
    x_3_1_43         c1025                           1 c1026                           1
    x_3_1_43         c1027                           1 c1028                           1
    x_3_1_43         c1029                           1 c1030                           1
    x_3_1_43         c1039                           1 c1040                           1
    x_3_1_43         c1041                           1 c1042                           1
    x_3_1_43         c1043                           1 c1044                           1
    x_3_1_43         c1045                           1 c1046                           1
    x_3_1_43         c1047                           1
    x_3_2_43         OBJ                             1 c1000                           1
    x_3_2_43         c1001                           1 c1002                           1
    x_3_2_43         c1003                           1 c1004                           1
    x_3_2_43         c1005                           1 c1006                           1
    x_3_2_43         c1007                           1 c1008                           1
    x_3_2_43         c1009                           1 c1010                           1
    x_3_2_43         c1011                           1 c1012                           1
    x_3_2_43         c1013                           1 c1014                           1
    x_3_2_43         c1015                           1 c1016                           1
    x_3_2_43         c1017                           1 c1018                           1
    x_3_2_43         c1019                           1 c1020                           1
    x_3_2_43         c1021                           1 c1022                           1
    x_3_2_43         c1023                           1 c1024                           1
    x_3_2_43         c1025                           1 c1026                           1
    x_3_2_43         c1027                           1 c1028                           1
    x_3_2_43         c1029                           1 c1030                           1
    x_3_2_43         c1039                           1 c1040                           1
    x_3_2_43         c1041                           1 c1042                           1
    x_3_2_43         c1043                           1 c1044                           1
    x_3_2_43         c1045                           1 c1046                           1
    x_3_2_43         c1047                           1
    x_3_3_43         OBJ                             1 c1000                           1
    x_3_3_43         c1001                           1 c1002                           1
    x_3_3_43         c1003                           1 c1004                           1
    x_3_3_43         c1005                           1 c1006                           1
    x_3_3_43         c1007                           1 c1008                           1
    x_3_3_43         c1009                           1 c1010                           1
    x_3_3_43         c1011                           1 c1012                           1
    x_3_3_43         c1013                           1 c1014                           1
    x_3_3_43         c1015                           1 c1016                           1
    x_3_3_43         c1017                           1 c1018                           1
    x_3_3_43         c1019                           1 c1020                           1
    x_3_3_43         c1021                           1 c1022                           1
    x_3_3_43         c1023                           1 c1024                           1
    x_3_3_43         c1025                           1 c1026                           1
    x_3_3_43         c1027                           1 c1028                           1
    x_3_3_43         c1029                           1 c1030                           1
    x_3_3_43         c1039                           1 c1040                           1
    x_3_3_43         c1041                           1 c1042                           1
    x_3_3_43         c1043                           1 c1044                           1
    x_3_3_43         c1045                           1 c1046                           1
    x_3_3_43         c1047                           1
    x_3_4_43         OBJ                             1 c1000                           1
    x_3_4_43         c1001                           1 c1002                           1
    x_3_4_43         c1003                           1 c1004                           1
    x_3_4_43         c1005                           1 c1006                           1
    x_3_4_43         c1007                           1 c1008                           1
    x_3_4_43         c1009                           1 c1010                           1
    x_3_4_43         c1011                           1 c1012                           1
    x_3_4_43         c1013                           1 c1014                           1
    x_3_4_43         c1015                           1 c1016                           1
    x_3_4_43         c1017                           1 c1018                           1
    x_3_4_43         c1019                           1 c1020                           1
    x_3_4_43         c1021                           1 c1022                           1
    x_3_4_43         c1023                           1 c1024                           1
    x_3_4_43         c1025                           1 c1026                           1
    x_3_4_43         c1027                           1 c1028                           1
    x_3_4_43         c1029                           1 c1030                           1
    x_3_4_43         c1039                           1 c1040                           1
    x_3_4_43         c1041                           1 c1042                           1
    x_3_4_43         c1043                           1 c1044                           1
    x_3_4_43         c1045                           1 c1046                           1
    x_3_4_43         c1047                           1
    x_3_5_43         OBJ                             1 c1000                           1
    x_3_5_43         c1001                           1 c1002                           1
    x_3_5_43         c1003                           1 c1004                           1
    x_3_5_43         c1005                           1 c1006                           1
    x_3_5_43         c1007                           1 c1008                           1
    x_3_5_43         c1009                           1 c1010                           1
    x_3_5_43         c1011                           1 c1012                           1
    x_3_5_43         c1013                           1 c1014                           1
    x_3_5_43         c1015                           1 c1016                           1
    x_3_5_43         c1017                           1 c1018                           1
    x_3_5_43         c1019                           1 c1020                           1
    x_3_5_43         c1021                           1 c1022                           1
    x_3_5_43         c1023                           1 c1024                           1
    x_3_5_43         c1025                           1 c1026                           1
    x_3_5_43         c1027                           1 c1028                           1
    x_3_5_43         c1029                           1 c1030                           1
    x_3_5_43         c1039                           1 c1040                           1
    x_3_5_43         c1041                           1 c1042                           1
    x_3_5_43         c1043                           1 c1044                           1
    x_3_5_43         c1045                           1 c1046                           1
    x_3_5_43         c1047                           1
    x_4_1_43         OBJ                             1 c1000                           1
    x_4_1_43         c1001                           1 c1002                           1
    x_4_1_43         c1003                           1 c1004                           1
    x_4_1_43         c1005                           1 c1006                           1
    x_4_1_43         c1007                           1 c1008                           1
    x_4_1_43         c1009                           1 c1010                           1
    x_4_1_43         c1011                           1 c1012                           1
    x_4_1_43         c1013                           1 c1014                           1
    x_4_1_43         c1015                           1 c1016                           1
    x_4_1_43         c1017                           1 c1018                           1
    x_4_1_43         c1019                           1 c1020                           1
    x_4_1_43         c1021                           1 c1022                           1
    x_4_1_43         c1023                           1 c1024                           1
    x_4_1_43         c1025                           1 c1026                           1
    x_4_1_43         c1027                           1 c1028                           1
    x_4_1_43         c1029                           1 c1030                           1
    x_4_1_43         c1039                           1 c1040                           1
    x_4_1_43         c1041                           1 c1042                           1
    x_4_1_43         c1043                           1 c1044                           1
    x_4_1_43         c1045                           1 c1046                           1
    x_4_1_43         c1047                           1
    x_4_2_43         OBJ                             1 c1000                           1
    x_4_2_43         c1001                           1 c1002                           1
    x_4_2_43         c1003                           1 c1004                           1
    x_4_2_43         c1005                           1 c1006                           1
    x_4_2_43         c1007                           1 c1008                           1
    x_4_2_43         c1009                           1 c1010                           1
    x_4_2_43         c1011                           1 c1012                           1
    x_4_2_43         c1013                           1 c1014                           1
    x_4_2_43         c1015                           1 c1016                           1
    x_4_2_43         c1017                           1 c1018                           1
    x_4_2_43         c1019                           1 c1020                           1
    x_4_2_43         c1021                           1 c1022                           1
    x_4_2_43         c1023                           1 c1024                           1
    x_4_2_43         c1025                           1 c1026                           1
    x_4_2_43         c1027                           1 c1028                           1
    x_4_2_43         c1029                           1 c1030                           1
    x_4_2_43         c1039                           1 c1040                           1
    x_4_2_43         c1041                           1 c1042                           1
    x_4_2_43         c1043                           1 c1044                           1
    x_4_2_43         c1045                           1 c1046                           1
    x_4_2_43         c1047                           1
    x_4_3_43         OBJ                             1 c1000                           1
    x_4_3_43         c1001                           1 c1002                           1
    x_4_3_43         c1003                           1 c1004                           1
    x_4_3_43         c1005                           1 c1006                           1
    x_4_3_43         c1007                           1 c1008                           1
    x_4_3_43         c1009                           1 c1010                           1
    x_4_3_43         c1011                           1 c1012                           1
    x_4_3_43         c1013                           1 c1014                           1
    x_4_3_43         c1015                           1 c1016                           1
    x_4_3_43         c1017                           1 c1018                           1
    x_4_3_43         c1019                           1 c1020                           1
    x_4_3_43         c1021                           1 c1022                           1
    x_4_3_43         c1023                           1 c1024                           1
    x_4_3_43         c1025                           1 c1026                           1
    x_4_3_43         c1027                           1 c1028                           1
    x_4_3_43         c1029                           1 c1030                           1
    x_4_3_43         c1039                           1 c1040                           1
    x_4_3_43         c1041                           1 c1042                           1
    x_4_3_43         c1043                           1 c1044                           1
    x_4_3_43         c1045                           1 c1046                           1
    x_4_3_43         c1047                           1
    MARK0001  'MARKER'                 'INTEND'
RHS
    RHS1              c1000                           0
    RHS1              c1001                           0
    RHS1              c1002                           0
    RHS1              c1003                           0
    RHS1              c1004                           0
    RHS1              c1005                           0
    RHS1              c1006                           0
    RHS1              c1007                           0
    RHS1              c1008                           0
    RHS1              c1009                           0
    RHS1              c1010                           0
    RHS1              c1011                           0
    RHS1              c1012                           0
    RHS1              c1013                           0
    RHS1              c1014                           0
    RHS1              c1015                           0
    RHS1              c1016                           0
    RHS1              c1017                           0
    RHS1              c1018                           0
    RHS1              c1019                           0
    RHS1              c1020                           0
    RHS1              c1021                           0
    RHS1              c1022                           0
    RHS1              c1023                           0
    RHS1              c1024                           0
    RHS1              c1025                           0
    RHS1              c1026                           0
    RHS1              c1027                           0
    RHS1              c1028                           0
    RHS1              c1029                           0
    RHS1              c1030                           0
    RHS1              c1039                           0
    RHS1              c1040                           0
    RHS1              c1041                           0
    RHS1              c1042                           0
    RHS1              c1043                           0
    RHS1              c1044                           0
    RHS1              c1045                           0
    RHS1              c1046                           0
    RHS1              c1047                           0
BOUNDS
 BV BND1              x_1_1_43
 BV BND1              x_1_2_43
 BV BND1              x_1_3_43
 BV BND1              x_1_4_43
 BV BND1              x_1_5_43
 BV BND1              x_2_1_43
 BV BND1              x_2_2_43
 BV BND1              x_2_3_43
 BV BND1              x_2_4_43
 BV BND1              x_2_5_43
 BV BND1              x_3_1_43
 BV BND1              x_3_2_43
 BV BND1              x_3_3_43
 BV BND1              x_3_4_43
 BV BND1              x_3_5_43
 BV BND1              x_4_1_43
 BV BND1              x_4_2_43
 BV BND1              x_4_3_43
ENDATA
