NAME          mad_ds
OBJSENSE
 MIN
ROWS
 N  OBJ
 G  F41
 E  F42
 E  F43
 E  F44
 E  F45
 E  F46
 E  F47
 E  F48
 E  F49
 E  F50
 E  F51
 N  F53
 L  F26
 G  F36
 L  F27
 G  F37
 L  F21
 G  F31
 E  F1
 E  F10
 E  F11
 E  F12
 E  F13
 E  F18
 E  F19
 E  F2
 E  F20
 E  F14
 E  F15
 E  F16
 E  F17
 L  F25
 E  F3
 G  F35
 E  F4
 E  F5
 E  F6
 E  F7
 E  F8
 E  F9
COLUMNS
    MARK0000  'MARKER'                 'INTORG'
    X1               OBJ                             0 F41                            13
    X1               F42                          -117 F43                         15600
    X1               F44                         18200 F45                          6500
    X1               F46                         16900 F47                            13
    X1               F48                          9100 F49                         18200
    X1               F50                          5200 F51                         14300
    X1               F53                            13 F21                             1
    X1               F31                            13 F1                              1
    X10              OBJ                             0 F41                            95
    X10              F42                          -855 F43                        114000
    X10              F44                        133000 F45                         47500
    X10              F46                        123500 F47                            95
    X10              F48                         66500 F49                        133000
    X10              F50                         38000 F51                        104500
    X10              F53                            95 F21                             1
    X10              F31                            95 F18                             1
    X100             OBJ                             0 F41                            55
    X100             F42                            55 F43                         66000
    X100             F44                         77000 F45                         27500
    X100             F46                       -478500 F47                            55
    X100             F48                         38500 F49                         77000
    X100             F50                         22000 F51                         60500
    X100             F53                            55 F10                             1
    X100             F25                             1 F35                            11
    X101             OBJ                             0 F41                             6
    X101             F42                             6 F43                          7200
    X101             F44                          8400 F45                          3000
    X101             F46                          7800 F47                           -54
    X101             F48                          4200 F49                          8400
    X101             F50                          2400 F51                          6600
    X101             F53                             6 F26                             1
    X101             F36                             6 F1                              1
    X102             OBJ                             0 F41                            87
    X102             F42                            87 F43                        104400
    X102             F44                        121800 F45                         43500
    X102             F46                        113100 F47                          -783
    X102             F48                         60900 F49                        121800
    X102             F50                         34800 F51                         95700
    X102             F53                            87 F26                             1
    X102             F36                            87 F2                              1
    X103             OBJ                             0 F41                            61
    X103             F42                            61 F43                         73200
    X103             F44                         85400 F45                         30500
    X103             F46                         79300 F47                          -549
    X103             F48                         42700 F49                         85400
    X103             F50                         24400 F51                         67100
    X103             F53                            61 F26                             1
    X103             F36                            61 F11                             1
    X104             OBJ                             0 F41                            46
    X104             F42                            46 F43                         55200
    X104             F44                         64400 F45                         23000
    X104             F46                         59800 F47                          -414
    X104             F48                         32200 F49                         64400
    X104             F50                         18400 F51                         50600
    X104             F53                            46 F26                             1
    X104             F36                            46 F12                             1
    X105             OBJ                             0 F41                             3
    X105             F42                             3 F43                          3600
    X105             F44                          4200 F45                          1500
    X105             F46                          3900 F47                           -27
    X105             F48                          2100 F49                          4200
    X105             F50                          1200 F51                          3300
    X105             F53                             3 F26                             1
    X105             F36                             3 F13                             1
    X106             OBJ                             0 F41                            23
    X106             F42                            23 F43                         27600
    X106             F44                         32200 F45                         11500
    X106             F46                         29900 F47                          -207
    X106             F48                         16100 F49                         32200
    X106             F50                          9200 F51                         25300
    X106             F53                            23 F26                             1
    X106             F36                            23 F14                             1
    X107             OBJ                             0 F41                            18
    X107             F42                            18 F43                         21600
    X107             F44                         25200 F45                          9000
    X107             F46                         23400 F47                          -162
    X107             F48                         12600 F49                         25200
    X107             F50                          7200 F51                         19800
    X107             F53                            18 F26                             1
    X107             F36                            18 F15                             1
    X108             OBJ                             0 F41                            58
    X108             F42                            58 F43                         69600
    X108             F44                         81200 F45                         29000
    X108             F46                         75400 F47                          -522
    X108             F48                         40600 F49                         81200
    X108             F50                         23200 F51                         63800
    X108             F53                            58 F26                             1
    X108             F36                            58 F16                             1
    X109             OBJ                             0 F41                            86
    X109             F42                            86 F43                        103200
    X109             F44                        120400 F45                         43000
    X109             F46                        111800 F47                          -774
    X109             F48                         60200 F49                        120400
    X109             F50                         34400 F51                         94600
    X109             F53                            86 F26                             1
    X109             F36                            86 F17                             1
    X11              OBJ                             0 F41                            90
    X11              F42                          -810 F43                        108000
    X11              F44                        126000 F45                         45000
    X11              F46                        117000 F47                            90
    X11              F48                         63000 F49                        126000
    X11              F50                         36000 F51                         99000
    X11              F53                            90 F21                             1
    X11              F31                            90 F19                             1
    X110             OBJ                             0 F41                            80
    X110             F42                            80 F43                         96000
    X110             F44                        112000 F45                         40000
    X110             F46                        104000 F47                          -720
    X110             F48                         56000 F49                        112000
    X110             F50                         32000 F51                         88000
    X110             F53                            80 F26                             1
    X110             F36                            80 F18                             1
    X111             OBJ                             0 F41                            80
    X111             F42                            80 F43                         96000
    X111             F44                        112000 F45                         40000
    X111             F46                        104000 F47                          -720
    X111             F48                         56000 F49                        112000
    X111             F50                         32000 F51                         88000
    X111             F53                            80 F26                             1
    X111             F36                            80 F19                             1
    X112             OBJ                             0 F41                            82
    X112             F42                            82 F43                         98400
    X112             F44                        114800 F45                         41000
    X112             F46                        106600 F47                          -738
    X112             F48                         57400 F49                        114800
    X112             F50                         32800 F51                         90200
    X112             F53                            82 F26                             1
    X112             F36                            82 F20                             1
    X113             OBJ                             0 F41                            57
    X113             F42                            57 F43                         68400
    X113             F44                         79800 F45                         28500
    X113             F46                         74100 F47                          -513
    X113             F48                         39900 F49                         79800
    X113             F50                         22800 F51                         62700
    X113             F53                            57 F26                             1
    X113             F36                            57 F3                              1
    X114             OBJ                             0 F41                            20
    X114             F42                            20 F43                         24000
    X114             F44                         28000 F45                         10000
    X114             F46                         26000 F47                          -180
    X114             F48                         14000 F49                         28000
    X114             F50                          8000 F51                         22000
    X114             F53                            20 F26                             1
    X114             F36                            20 F4                              1
    X115             OBJ                             0 F41                            50
    X115             F42                            50 F43                         60000
    X115             F44                         70000 F45                         25000
    X115             F46                         65000 F47                          -450
    X115             F48                         35000 F49                         70000
    X115             F50                         20000 F51                         55000
    X115             F53                            50 F26                             1
    X115             F36                            50 F5                              1
    X116             OBJ                             0 F41                            48
    X116             F42                            48 F43                         57600
    X116             F44                         67200 F45                         24000
    X116             F46                         62400 F47                          -432
    X116             F48                         33600 F49                         67200
    X116             F50                         19200 F51                         52800
    X116             F53                            48 F26                             1
    X116             F36                            48 F6                              1
    X117             OBJ                             0 F41                            36
    X117             F42                            36 F43                         43200
    X117             F44                         50400 F45                         18000
    X117             F46                         46800 F47                          -324
    X117             F48                         25200 F49                         50400
    X117             F50                         14400 F51                         39600
    X117             F53                            36 F26                             1
    X117             F36                            36 F7                              1
    X118             OBJ                             0 F41                            35
    X118             F42                            35 F43                         42000
    X118             F44                         49000 F45                         17500
    X118             F46                         45500 F47                          -315
    X118             F48                         24500 F49                         49000
    X118             F50                         14000 F51                         38500
    X118             F53                            35 F26                             1
    X118             F36                            35 F8                              1
    X119             OBJ                             0 F41                            54
    X119             F42                            54 F43                         64800
    X119             F44                         75600 F45                         27000
    X119             F46                         70200 F47                          -486
    X119             F48                         37800 F49                         75600
    X119             F50                         21600 F51                         59400
    X119             F53                            54 F26                             1
    X119             F36                            54 F9                              1
    X12              OBJ                             0 F41                             3
    X12              F42                           -27 F43                          3600
    X12              F44                          4200 F45                          1500
    X12              F46                          3900 F47                             3
    X12              F48                          2100 F49                          4200
    X12              F50                          1200 F51                          3300
    X12              F53                             3 F21                             1
    X12              F31                             3 F20                             1
    X120             OBJ                             0 F41                            62
    X120             F42                            62 F43                         74400
    X120             F44                         86800 F45                         31000
    X120             F46                         80600 F47                          -558
    X120             F48                         43400 F49                         86800
    X120             F50                         24800 F51                         68200
    X120             F53                            62 F26                             1
    X120             F36                            62 F10                             1
    X121             OBJ                             0 F41                            26
    X121             F42                            26 F43                         31200
    X121             F44                         36400 F45                         13000
    X121             F46                         33800 F47                            26
    X121             F48                       -241800 F49                         36400
    X121             F50                         10400 F51                         28600
    X121             F53                            26 F27                             1
    X121             F37                            26 F1                              1
    X122             OBJ                             0 F41                            84
    X122             F42                            84 F43                        100800
    X122             F44                        117600 F45                         42000
    X122             F46                        109200 F47                            84
    X122             F48                       -781200 F49                        117600
    X122             F50                         33600 F51                         92400
    X122             F53                            84 F27                             1
    X122             F37                            84 F2                              1
    X123             OBJ                             0 F41                            34
    X123             F42                            34 F43                         40800
    X123             F44                         47600 F45                         17000
    X123             F46                         44200 F47                            34
    X123             F48                       -316200 F49                         47600
    X123             F50                         13600 F51                         37400
    X123             F53                            34 F27                             1
    X123             F37                            34 F11                             1
    X124             OBJ                             0 F41                             7
    X124             F42                             7 F43                          8400
    X124             F44                          9800 F45                          3500
    X124             F46                          9100 F47                             7
    X124             F48                        -65100 F49                          9800
    X124             F50                          2800 F51                          7700
    X124             F53                             7 F27                             1
    X124             F37                             7 F12                             1
    X125             OBJ                             0 F41                            16
    X125             F42                            16 F43                         19200
    X125             F44                         22400 F45                          8000
    X125             F46                         20800 F47                            16
    X125             F48                       -148800 F49                         22400
    X125             F50                          6400 F51                         17600
    X125             F53                            16 F27                             1
    X125             F37                            16 F13                             1
    MARK0001  'MARKER'                 'INTEND'
RHS
    RHS1              F41                             0
    RHS1              F42                             0
    RHS1              F43                             0
    RHS1              F44                             0
    RHS1              F45                             0
    RHS1              F46                             0
    RHS1              F47                             0
    RHS1              F48                             0
    RHS1              F49                             0
    RHS1              F50                             0
    RHS1              F51                             0
    RHS1              F53                             0
    RHS1              F26                             4
    RHS1              F36                             0
    RHS1              F27                            10
    RHS1              F37                             0
    RHS1              F21                             4
    RHS1              F31                             0
    RHS1              F1                              1
    RHS1              F10                             1
    RHS1              F11                             1
    RHS1              F12                             1
    RHS1              F13                             1
    RHS1              F18                             1
    RHS1              F19                             1
    RHS1              F2                              1
    RHS1              F20                             1
    RHS1              F14                             1
    RHS1              F15                             1
    RHS1              F16                             1
    RHS1              F17                             1
    RHS1              F25                             3
    RHS1              F3                              1
    RHS1              F35                             0
    RHS1              F4                              1
    RHS1              F5                              1
    RHS1              F6                              1
    RHS1              F7                              1
    RHS1              F8                              1
    RHS1              F9                              1
BOUNDS
 BV BND1              X1
 BV BND1              X10
 BV BND1              X100
 BV BND1              X101
 BV BND1              X102
 BV BND1              X103
 BV BND1              X104
 BV BND1              X105
 BV BND1              X106
 BV BND1              X107
 BV BND1              X108
 BV BND1              X109
 BV BND1              X11
 BV BND1              X110
 BV BND1              X111
 BV BND1              X112
 BV BND1              X113
 BV BND1              X114
 BV BND1              X115
 BV BND1              X116
 BV BND1              X117
 BV BND1              X118
 BV BND1              X119
 BV BND1              X12
 BV BND1              X120
 BV BND1              X121
 BV BND1              X122
 BV BND1              X123
 BV BND1              X124
 BV BND1              X125
ENDATA
