NAME          academictimetablesmall_ds
OBJSENSE
 MIN
ROWS
 N  OBJ
 E  c11('1_1',4)
 E  c11('1_1',5)
 E  c11('1_2',4)
 E  c11('1_2',5)
 G  c11a('1_1',12,13)
 G  c11a('1_1',14,15)
 G  c11a('1_1',16,17)
 G  c11a('1_1',18,19)
 G  c11a('1_1',20,21)
 G  c11a('1_2',12,13)
 G  c11a('1_2',14,15)
 G  c11a('1_2',16,17)
 L  c12a(12)
 L  c12a(13)
 L  c12a(14)
 L  c12a(15)
 L  c12a(16)
 L  c12a(17)
 L  c12a(22)
 E  c11('2_1',7)
 E  c11('2_2',7)
 G  c11a('2_1',22,23)
 G  c11a('2_1',22,24)
 G  c11a('2_2',22,23)
 G  c11a('2_2',22,24)
 L  c12a(18)
 L  c12a(19)
 L  c12a(20)
 L  c12a(21)
 G  c13b(12,'1_1',F,1)
 G  c13b(12,'1_1',F,2)
 G  c13b(12,'1_1',F,3)
 G  c13b(12,'1_1',F,4)
 G  c13b(12,'1_1',F,5)
 G  c13b(12,'1_1',F,6)
 G  c13b(12,'1_1',F,7)
 G  c13b(12,'1_1',M,1)
 G  c13b(12,'1_1',M,2)
 G  c13b(12,'1_1',M,3)
 G  c13b(12,'1_1',M,4)
COLUMNS
    MARK0000  'MARKER'                 'INTORG'
    x('2_1',22)      OBJ                             0 c12a(22)                        6
    x('2_1',22)      c11('2_1',7)                    1 c11a('2_1',22,23)                1
    x('2_1',22)      c11a('2_1',22,24)                1
    x('2_2',22)      OBJ                             0 c12a(22)                       15
    x('2_2',22)      c11('2_2',7)                    1 c11a('2_2',22,23)                1
    x('2_2',22)      c11a('2_2',22,24)                1
    x('1_1',12)      OBJ                             0 c11('1_1',4)                    1
    x('1_1',12)      c11a('1_1',12,13)                1 c12a(12)                        7
    x('1_1',12)      c13b(12,'1_1',F,1)               -1 c13b(12,'1_1',F,2)               -1
    x('1_1',12)      c13b(12,'1_1',F,3)               -1 c13b(12,'1_1',F,4)               -1
    x('1_1',12)      c13b(12,'1_1',F,5)               -1 c13b(12,'1_1',F,6)               -1
    x('1_1',12)      c13b(12,'1_1',F,7)               -1 c13b(12,'1_1',M,1)               -1
    x('1_1',12)      c13b(12,'1_1',M,2)               -1 c13b(12,'1_1',M,3)               -1
    x('1_1',12)      c13b(12,'1_1',M,4)               -1
    x('1_1',13)      OBJ                             0 c11('1_1',5)                    1
    x('1_1',13)      c11a('1_1',12,13)               -1 c12a(13)                        7
    x('1_1',14)      OBJ                             0 c11('1_1',4)                    1
    x('1_1',14)      c11a('1_1',14,15)                1 c12a(14)                        7
    x('1_1',15)      OBJ                             0 c11('1_1',5)                    1
    x('1_1',15)      c11a('1_1',14,15)               -1 c12a(15)                        7
    x('1_1',16)      OBJ                             0 c11('1_1',4)                    1
    x('1_1',16)      c11a('1_1',16,17)                1 c12a(16)                        7
    x('1_1',17)      OBJ                             0 c11('1_1',5)                    1
    x('1_1',17)      c11a('1_1',16,17)               -1 c12a(17)                        7
    x('1_1',18)      OBJ                             0 c11('1_1',4)                    1
    x('1_1',18)      c11a('1_1',18,19)                1 c12a(18)                        7
    x('1_1',19)      OBJ                             0 c11('1_1',5)                    1
    x('1_1',19)      c11a('1_1',18,19)               -1 c12a(19)                        7
    x('1_1',20)      OBJ                             0 c11('1_1',4)                    1
    x('1_1',20)      c11a('1_1',20,21)                1 c12a(20)                        7
    x('1_1',21)      OBJ                             0 c11('1_1',5)                    1
    x('1_1',21)      c11a('1_1',20,21)               -1 c12a(21)                        7
    x('1_2',12)      OBJ                             0 c11('1_2',4)                    1
    x('1_2',12)      c11a('1_2',12,13)                1 c12a(12)                       15
    x('1_2',13)      OBJ                             0 c11('1_2',5)                    1
    x('1_2',13)      c11a('1_2',12,13)               -1 c12a(13)                       15
    x('1_2',14)      OBJ                             0 c11('1_2',4)                    1
    x('1_2',14)      c11a('1_2',14,15)                1 c12a(14)                       15
    x('1_2',15)      OBJ                             0 c11('1_2',5)                    1
    x('1_2',15)      c11a('1_2',14,15)               -1 c12a(15)                       15
    x('1_2',16)      OBJ                             0 c11('1_2',4)                    1
    x('1_2',16)      c11a('1_2',16,17)                1 c12a(16)                       15
    x('1_2',17)      OBJ                             0 c11('1_2',5)                    1
    x('1_2',17)      c11a('1_2',16,17)               -1 c12a(17)                       15
    MARK0001  'MARKER'                 'INTEND'
RHS
    RHS1              c11('1_1',4)                    0
    RHS1              c11('1_1',5)                    0
    RHS1              c11('1_2',4)                    0
    RHS1              c11('1_2',5)                    0
    RHS1              c11a('1_1',12,13)                0
    RHS1              c11a('1_1',14,15)                0
    RHS1              c11a('1_1',16,17)                0
    RHS1              c11a('1_1',18,19)                0
    RHS1              c11a('1_1',20,21)                0
    RHS1              c11a('1_2',12,13)                0
    RHS1              c11a('1_2',14,15)                0
    RHS1              c11a('1_2',16,17)                0
    RHS1              c12a(12)                        0
    RHS1              c12a(13)                        0
    RHS1              c12a(14)                        0
    RHS1              c12a(15)                        0
    RHS1              c12a(16)                        0
    RHS1              c12a(17)                        0
    RHS1              c12a(22)                        0
    RHS1              c11('2_1',7)                    0
    RHS1              c11('2_2',7)                    0
    RHS1              c11a('2_1',22,23)                0
    RHS1              c11a('2_1',22,24)                0
    RHS1              c11a('2_2',22,23)                0
    RHS1              c11a('2_2',22,24)                0
    RHS1              c12a(18)                        0
    RHS1              c12a(19)                        0
    RHS1              c12a(20)                        0
    RHS1              c12a(21)                        0
    RHS1              c13b(12,'1_1',F,1)                0
    RHS1              c13b(12,'1_1',F,2)                0
    RHS1              c13b(12,'1_1',F,3)                0
    RHS1              c13b(12,'1_1',F,4)                0
    RHS1              c13b(12,'1_1',F,5)                0
    RHS1              c13b(12,'1_1',F,6)                0
    RHS1              c13b(12,'1_1',F,7)                0
    RHS1              c13b(12,'1_1',M,1)                0
    RHS1              c13b(12,'1_1',M,2)                0
    RHS1              c13b(12,'1_1',M,3)                0
    RHS1              c13b(12,'1_1',M,4)                0
BOUNDS
 BV BND1              x('2_1',22)
 BV BND1              x('2_2',22)
 BV BND1              x('1_1',12)
 BV BND1              x('1_1',13)
 BV BND1              x('1_1',14)
 BV BND1              x('1_1',15)
 BV BND1              x('1_1',16)
 BV BND1              x('1_1',17)
 BV BND1              x('1_1',18)
 BV BND1              x('1_1',19)
 BV BND1              x('1_1',20)
 BV BND1              x('1_1',21)
 BV BND1              x('1_2',12)
 BV BND1              x('1_2',13)
 BV BND1              x('1_2',14)
 BV BND1              x('1_2',15)
 BV BND1              x('1_2',16)
 BV BND1              x('1_2',17)
ENDATA
