NAME          swath3_ds
OBJSENSE
 MIN
ROWS
 N  OBJ
 E  R0000001
 E  R0000452
 E  R0000004
 E  R0000005
 E  R0000006
 E  R0000007
 L  R0000252
 L  R0000253
 L  R0000254
 L  R0000255
 E  R0000008
 L  R0000256
 E  R0000404
 E  R0000405
 E  R0000406
 E  R0000407
 E  R0000408
 E  R0000409
 E  R0000410
 E  R0000411
 E  R0000412
 E  R0000413
 E  R0000414
 E  R0000415
 E  R0000416
 E  R0000417
 E  R0000418
 E  R0000419
 E  R0000420
 E  R0000421
COLUMNS
    MARK0000  'MARKER'                 'INTORG'
    C0004101         OBJ                             0 R0000001             -9.58426e+07
    C0004101         R0000452                       -1 R0000004                        1
    C0004101         R0000252                       20 R0000404                        1
    C0004102         OBJ                             0 R0000001             -1.14593e+08
    C0004102         R0000452                       -1 R0000004                        1
    C0004102         R0000252                       20 R0000405                        1
    C0004103         OBJ                             0 R0000001             -1.06047e+08
    C0004103         R0000452                       -1 R0000004                        1
    C0004103         R0000252                       20 R0000406                        1
    C0004104         OBJ                             0 R0000001             -8.51072e+07
    C0004104         R0000452                       -1 R0000004                        1
    C0004104         R0000252                       20 R0000407                        1
    C0004105         OBJ                             0 R0000001             -8.54532e+07
    C0004105         R0000452                       -1 R0000005                        1
    C0004105         R0000253                       20 R0000408                        1
    C0004106         OBJ                             0 R0000001             -1.01218e+08
    C0004106         R0000452                       -1 R0000005                        1
    C0004106         R0000253                       20 R0000409                        1
    C0004107         OBJ                             0 R0000001             -1.13006e+08
    C0004107         R0000452                       -1 R0000005                        1
    C0004107         R0000253                       20 R0000410                        1
    C0004108         OBJ                             0 R0000001             -9.94184e+07
    C0004108         R0000452                       -1 R0000005                        1
    C0004108         R0000253                       20 R0000411                        1
    C0004109         OBJ                             0 R0000001              -1.0607e+08
    C0004109         R0000452                       -1 R0000006                        1
    C0004109         R0000254                       20 R0000412                        1
    C0004110         OBJ                             0 R0000001             -8.49132e+07
    C0004110         R0000452                       -1 R0000006                        1
    C0004110         R0000254                       20 R0000413                        1
    C0004111         OBJ                             0 R0000001             -9.54437e+07
    C0004111         R0000452                       -1 R0000006                        1
    C0004111         R0000254                       20 R0000414                        1
    C0004112         OBJ                             0 R0000001             -1.14427e+08
    C0004112         R0000452                       -1 R0000006                        1
    C0004112         R0000254                       20 R0000415                        1
    C0004113         OBJ                             0 R0000001             -1.14333e+08
    C0004113         R0000452                       -1 R0000007                        1
    C0004113         R0000255                       20 R0000416                        1
    C0004114         OBJ                             0 R0000001             -1.00767e+08
    C0004114         R0000452                       -1 R0000007                        1
    C0004114         R0000255                       20 R0000417                        1
    C0004115         OBJ                             0 R0000001             -8.68008e+07
    C0004115         R0000452                       -1 R0000007                        1
    C0004115         R0000255                       20 R0000418                        1
    C0004116         OBJ                             0 R0000001             -1.02509e+08
    C0004116         R0000452                       -1 R0000007                        1
    C0004116         R0000255                       20 R0000419                        1
    C0004117         OBJ                             0 R0000001             -1.18548e+08
    C0004117         R0000452                       -1 R0000008                        1
    C0004117         R0000256                       20 R0000420                        1
    C0004118         OBJ                             0 R0000001             -9.80695e+07
    C0004118         R0000452                       -1 R0000008                        1
    C0004118         R0000256                       20 R0000421                        1
    MARK0001  'MARKER'                 'INTEND'
RHS
    RHS1              R0000001                        0
    RHS1              R0000452                        0
    RHS1              R0000004                        0
    RHS1              R0000005                        0
    RHS1              R0000006                        0
    RHS1              R0000007                        0
    RHS1              R0000252                        0
    RHS1              R0000253                        0
    RHS1              R0000254                        0
    RHS1              R0000255                        0
    RHS1              R0000008                        0
    RHS1              R0000256                        0
    RHS1              R0000404                        0
    RHS1              R0000405                        0
    RHS1              R0000406                        0
    RHS1              R0000407                        0
    RHS1              R0000408                        0
    RHS1              R0000409                        0
    RHS1              R0000410                        0
    RHS1              R0000411                        0
    RHS1              R0000412                        0
    RHS1              R0000413                        0
    RHS1              R0000414                        0
    RHS1              R0000415                        0
    RHS1              R0000416                        0
    RHS1              R0000417                        0
    RHS1              R0000418                        0
    RHS1              R0000419                        0
    RHS1              R0000420                        0
    RHS1              R0000421                        0
BOUNDS
 BV BND1              C0004101
 BV BND1              C0004102
 BV BND1              C0004103
 BV BND1              C0004104
 BV BND1              C0004105
 BV BND1              C0004106
 BV BND1              C0004107
 BV BND1              C0004108
 BV BND1              C0004109
 BV BND1              C0004110
 BV BND1              C0004111
 BV BND1              C0004112
 BV BND1              C0004113
 BV BND1              C0004114
 BV BND1              C0004115
 BV BND1              C0004116
 BV BND1              C0004117
 BV BND1              C0004118
ENDATA
