NAME          neos-5052403-cygnet_ds
OBJSENSE
 MIN
ROWS
 N  OBJ
 G  R10000
 G  R10003
 G  R10006
 G  R10195
 G  R10198
 G  R10201
 G  R10204
 G  R10207
 G  R10210
 G  R10213
 G  R10216
 G  R10275
 G  R10278
 G  R10281
 G  R10284
 G  R10287
 G  R10290
 G  R10293
 G  R10296
 G  R10485
 G  R10488
 G  R10491
 G  R10494
 G  R10497
 G  R10500
 G  R10503
 G  R10506
 G  R10564
 G  R10567
 G  R10570
 G  R10573
 G  R10576
 G  R10579
 G  R10582
 G  R10585
 G  R10772
 G  R10775
 G  R10778
 G  R10781
 G  R10784
COLUMNS
    MARK0000  'MARKER'                 'INTORG'
    C10000           OBJ                             1 R10000                          1
    C10000           R10003                          1 R10006                          1
    C10000           R10275                          1 R10278                          1
    C10000           R10281                          1 R10284                          1
    C10000           R10287                          1 R10290                          1
    C10000           R10293                          1 R10296                          1
    C10000           R10564                          1 R10567                          1
    C10000           R10570                          1 R10573                          1
    C10000           R10576                          1 R10579                          1
    C10000           R10582                          1 R10585                          1
    C10001           OBJ                             1 R10195                          1
    C10001           R10198                          1 R10201                          1
    C10001           R10204                          1 R10207                          1
    C10001           R10210                          1 R10213                          1
    C10001           R10216                          1 R10485                          1
    C10001           R10488                          1 R10491                          1
    C10001           R10494                          1 R10497                          1
    C10001           R10500                          1 R10503                          1
    C10001           R10506                          1 R10772                          1
    C10001           R10775                          1 R10778                          1
    C10001           R10781                          1 R10784                          1
    C10002           OBJ                             1 R10000                          1
    C10002           R10003                          1 R10006                          1
    C10002           R10275                          1 R10278                          1
    C10002           R10281                          1 R10284                          1
    C10002           R10287                          1 R10290                          1
    C10002           R10293                          1 R10296                          1
    C10002           R10564                          1 R10567                          1
    C10002           R10570                          1 R10573                          1
    C10002           R10576                          1 R10579                          1
    C10002           R10582                          1 R10585                          1
    C10003           OBJ                             1 R10195                          1
    C10003           R10198                          1 R10201                          1
    C10003           R10204                          1 R10207                          1
    C10003           R10210                          1 R10213                          1
    C10003           R10216                          1 R10485                          1
    C10003           R10488                          1 R10491                          1
    C10003           R10494                          1 R10497                          1
    C10003           R10500                          1 R10503                          1
    C10003           R10506                          1 R10772                          1
    C10003           R10775                          1 R10778                          1
    C10003           R10781                          1 R10784                          1
    C10004           OBJ                             1 R10000                          1
    C10004           R10003                          1 R10006                          1
    C10004           R10275                          1 R10278                          1
    C10004           R10281                          1 R10284                          1
    C10004           R10287                          1 R10290                          1
    C10004           R10293                          1 R10296                          1
    C10004           R10564                          1 R10567                          1
    C10004           R10570                          1 R10573                          1
    C10004           R10576                          1 R10579                          1
    C10004           R10582                          1 R10585                          1
    C10005           OBJ                             1 R10195                          1
    C10005           R10198                          1 R10201                          1
    C10005           R10204                          1 R10207                          1
    C10005           R10210                          1 R10213                          1
    C10005           R10216                          1 R10485                          1
    C10005           R10488                          1 R10491                          1
    C10005           R10494                          1 R10497                          1
    C10005           R10500                          1 R10503                          1
    C10005           R10506                          1 R10772                          1
    C10005           R10775                          1 R10778                          1
    C10005           R10781                          1 R10784                          1
    C10006           OBJ                             1 R10000                          1
    C10006           R10003                          1 R10006                          1
    C10006           R10275                          1 R10278                          1
    C10006           R10281                          1 R10284                          1
    C10006           R10287                          1 R10290                          1
    C10006           R10293                          1 R10296                          1
    C10006           R10564                          1 R10567                          1
    C10006           R10570                          1 R10573                          1
    C10006           R10576                          1 R10579                          1
    C10006           R10582                          1 R10585                          1
    C10007           OBJ                             1 R10195                          1
    C10007           R10198                          1 R10201                          1
    C10007           R10204                          1 R10207                          1
    C10007           R10210                          1 R10213                          1
    C10007           R10216                          1 R10485                          1
    C10007           R10488                          1 R10491                          1
    C10007           R10494                          1 R10497                          1
    C10007           R10500                          1 R10503                          1
    C10007           R10506                          1 R10772                          1
    C10007           R10775                          1 R10778                          1
    C10007           R10781                          1 R10784                          1
    C10008           OBJ                             1 R10000                          1
    C10008           R10003                          1 R10006                          1
    C10008           R10275                          1 R10278                          1
    C10008           R10281                          1 R10284                          1
    C10008           R10287                          1 R10290                          1
    C10008           R10293                          1 R10296                          1
    C10008           R10564                          1 R10567                          1
    C10008           R10570                          1 R10573                          1
    C10008           R10576                          1 R10579                          1
    C10008           R10582                          1 R10585                          1
    C10009           OBJ                             1 R10195                          1
    C10009           R10198                          1 R10201                          1
    C10009           R10204                          1 R10207                          1
    C10009           R10210                          1 R10213                          1
    C10009           R10216                          1 R10485                          1
    C10009           R10488                          1 R10491                          1
    C10009           R10494                          1 R10497                          1
    C10009           R10500                          1 R10503                          1
    C10009           R10506                          1 R10772                          1
    C10009           R10775                          1 R10778                          1
    C10009           R10781                          1 R10784                          1
    C10010           OBJ                             1 R10000                          1
    C10010           R10003                          1 R10006                          1
    C10010           R10275                          1 R10278                          1
    C10010           R10281                          1 R10284                          1
    C10010           R10287                          1 R10290                          1
    C10010           R10293                          1 R10296                          1
    C10010           R10564                          1 R10567                          1
    C10010           R10570                          1 R10573                          1
    C10010           R10576                          1 R10579                          1
    C10010           R10582                          1 R10585                          1
    C10011           OBJ                             1 R10195                          1
    C10011           R10198                          1 R10201                          1
    C10011           R10204                          1 R10207                          1
    C10011           R10210                          1 R10213                          1
    C10011           R10216                          1 R10485                          1
    C10011           R10488                          1 R10491                          1
    C10011           R10494                          1 R10497                          1
    C10011           R10500                          1 R10503                          1
    C10011           R10506                          1 R10772                          1
    C10011           R10775                          1 R10778                          1
    C10011           R10781                          1 R10784                          1
    C10012           OBJ                             1 R10000                          1
    C10012           R10003                          1 R10006                          1
    C10012           R10275                          1 R10278                          1
    C10012           R10281                          1 R10284                          1
    C10012           R10287                          1 R10290                          1
    C10012           R10293                          1 R10296                          1
    C10012           R10564                          1 R10567                          1
    C10012           R10570                          1 R10573                          1
    C10012           R10576                          1 R10579                          1
    C10012           R10582                          1 R10585                          1
    C10013           OBJ                             1 R10195                          1
    C10013           R10198                          1 R10201                          1
    C10013           R10204                          1 R10207                          1
    C10013           R10210                          1 R10213                          1
    C10013           R10216                          1 R10485                          1
    C10013           R10488                          1 R10491                          1
    C10013           R10494                          1 R10497                          1
    C10013           R10500                          1 R10503                          1
    C10013           R10506                          1 R10772                          1
    C10013           R10775                          1 R10778                          1
    C10013           R10781                          1 R10784                          1
    C10014           OBJ                             1 R10000                          1
    C10014           R10003                          1 R10006                          1
    C10014           R10275                          1 R10278                          1
    C10014           R10281                          1 R10284                          1
    C10014           R10287                          1 R10290                          1
    C10014           R10293                          1 R10296                          1
    C10014           R10564                          1 R10567                          1
    C10014           R10570                          1 R10573                          1
    C10014           R10576                          1 R10579                          1
    C10014           R10582                          1 R10585                          1
    C10015           OBJ                             1 R10195                          1
    C10015           R10198                          1 R10201                          1
    C10015           R10204                          1 R10207                          1
    C10015           R10210                          1 R10213                          1
    C10015           R10216                          1 R10485                          1
    C10015           R10488                          1 R10491                          1
    C10015           R10494                          1 R10497                          1
    C10015           R10500                          1 R10503                          1
    C10015           R10506                          1 R10772                          1
    C10015           R10775                          1 R10778                          1
    C10015           R10781                          1 R10784                          1
    C10016           OBJ                             1 R10000                          1
    C10016           R10003                          1 R10006                          1
    C10016           R10275                          1 R10278                          1
    C10016           R10281                          1 R10284                          1
    C10016           R10287                          1 R10290                          1
    C10016           R10293                          1 R10296                          1
    C10016           R10564                          1 R10567                          1
    C10016           R10570                          1 R10573                          1
    C10016           R10576                          1 R10579                          1
    C10016           R10582                          1 R10585                          1
    C10017           OBJ                             1 R10195                          1
    C10017           R10198                          1 R10201                          1
    C10017           R10204                          1 R10207                          1
    C10017           R10210                          1 R10213                          1
    C10017           R10216                          1 R10485                          1
    C10017           R10488                          1 R10491                          1
    C10017           R10494                          1 R10497                          1
    C10017           R10500                          1 R10503                          1
    C10017           R10506                          1 R10772                          1
    C10017           R10775                          1 R10778                          1
    C10017           R10781                          1 R10784                          1
    MARK0001  'MARKER'                 'INTEND'
RHS
    RHS1              R10000                          1
    RHS1              R10003                          1
    RHS1              R10006                          1
    RHS1              R10195                          1
    RHS1              R10198                          1
    RHS1              R10201                          1
    RHS1              R10204                          1
    RHS1              R10207                          1
    RHS1              R10210                          1
    RHS1              R10213                          1
    RHS1              R10216                          1
    RHS1              R10275                          1
    RHS1              R10278                          1
    RHS1              R10281                          1
    RHS1              R10284                          1
    RHS1              R10287                          1
    RHS1              R10290                          1
    RHS1              R10293                          1
    RHS1              R10296                          1
    RHS1              R10485                          1
    RHS1              R10488                          1
    RHS1              R10491                          1
    RHS1              R10494                          1
    RHS1              R10497                          1
    RHS1              R10500                          1
    RHS1              R10503                          1
    RHS1              R10506                          1
    RHS1              R10564                          1
    RHS1              R10567                          1
    RHS1              R10570                          1
    RHS1              R10573                          1
    RHS1              R10576                          1
    RHS1              R10579                          1
    RHS1              R10582                          1
    RHS1              R10585                          1
    RHS1              R10772                          1
    RHS1              R10775                          1
    RHS1              R10778                          1
    RHS1              R10781                          1
    RHS1              R10784                          1
BOUNDS
 BV BND1              C10000
 BV BND1              C10001
 BV BND1              C10002
 BV BND1              C10003
 BV BND1              C10004
 BV BND1              C10005
 BV BND1              C10006
 BV BND1              C10007
 BV BND1              C10008
 BV BND1              C10009
 BV BND1              C10010
 BV BND1              C10011
 BV BND1              C10012
 BV BND1              C10013
 BV BND1              C10014
 BV BND1              C10015
 BV BND1              C10016
 BV BND1              C10017
ENDATA
