NAME          sp98ar_ds
OBJSENSE
 MIN
ROWS
 N  OBJ
 G  c10
 G  c11
 L  c1233
 G  c198
 G  c199
 G  c20
 G  c200
 G  c201
 G  c21
 G  c211
 G  c212
 G  c213
 G  c214
 G  c22
 G  c23
 G  c245
 G  c246
 G  c247
 G  c262
 G  c263
 G  c266
 G  c272
 G  c295
 G  c296
 G  c297
 G  c303
 G  c304
 G  c337
 G  c358
 G  c359
 G  c360
 G  c367
 G  c368
 G  c392
 G  c408
 G  c411
 G  c415
 G  c419
 G  c420
 G  c436
COLUMNS
    MARK0000  'MARKER'                 'INTORG'
    x11901           OBJ                   2.49647e+08 c10                             1
    x11901           c11                             2 c1233                           1
    x11901           c198                            1 c199                            2
    x11901           c20                             1 c200                            1
    x11901           c201                            2 c21                             2
    x11901           c211                            1 c212                            2
    x11901           c213                            1 c214                            2
    x11901           c22                             1 c23                             2
    x11901           c245                            2 c246                            1
    x11901           c247                            2 c262                            2
    x11901           c263                            5 c266                            2
    x11901           c272                            2 c295                            1
    x11901           c296                            1 c297                            1
    x11901           c303                            1 c304                            1
    x11901           c337                            1 c358                            1
    x11901           c359                            1 c360                            1
    x11901           c367                            1 c368                            1
    x11901           c392                            1 c408                            1
    x11901           c411                            2 c415                            1
    x11901           c419                            1 c420                            1
    x11901           c436                            1
    x11902           OBJ                   3.01307e+08 c10                             1
    x11902           c11                             3 c1233                           1
    x11902           c198                            1 c199                            3
    x11902           c20                             1 c200                            1
    x11902           c201                            3 c21                             3
    x11902           c211                            1 c212                            3
    x11902           c213                            1 c214                            3
    x11902           c22                             1 c23                             3
    x11902           c245                            3 c246                            1
    x11902           c247                            3 c262                            3
    x11902           c263                            5 c266                            3
    x11902           c272                            3 c295                            1
    x11902           c296                            1 c297                            2
    x11902           c303                            1 c304                            1
    x11902           c337                            1 c358                            1
    x11902           c359                            1 c360                            2
    x11902           c367                            1 c368                            1
    x11902           c392                            1 c408                            1
    x11902           c411                            3 c415                            1
    x11902           c419                            1 c420                            1
    x11902           c436                            1
    x11903           OBJ                   3.52967e+08 c10                             1
    x11903           c11                             4 c1233                           1
    x11903           c198                            1 c199                            4
    x11903           c20                             1 c200                            1
    x11903           c201                            4 c21                             4
    x11903           c211                            1 c212                            4
    x11903           c213                            1 c214                            4
    x11903           c22                             1 c23                             4
    x11903           c245                            4 c246                            1
    x11903           c247                            4 c262                            4
    x11903           c263                            5 c266                            4
    x11903           c272                            4 c295                            1
    x11903           c296                            1 c297                            2
    x11903           c303                            1 c304                            1
    x11903           c337                            1 c358                            1
    x11903           c359                            1 c360                            2
    x11903           c367                            1 c368                            2
    x11903           c392                            1 c408                            1
    x11903           c411                            4 c415                            1
    x11903           c419                            1 c420                            1
    x11903           c436                            2
    x11904           OBJ                   4.04627e+08 c10                             1
    x11904           c11                             5 c1233                           1
    x11904           c198                            1 c199                            5
    x11904           c20                             1 c200                            1
    x11904           c201                            5 c21                             5
    x11904           c211                            1 c212                            5
    x11904           c213                            1 c214                            5
    x11904           c22                             1 c23                             5
    x11904           c245                            4 c246                            1
    x11904           c247                            5 c262                            5
    x11904           c263                            5 c266                            5
    x11904           c272                            5 c295                            1
    x11904           c296                            1 c297                            2
    x11904           c303                            1 c304                            1
    x11904           c337                            2 c358                            2
    x11904           c359                            2 c360                            2
    x11904           c367                            1 c368                            2
    x11904           c392                            2 c408                            1
    x11904           c411                            5 c415                            1
    x11904           c419                            1 c420                            1
    x11904           c436                            2
    x11905           OBJ                   4.56287e+08 c10                             1
    x11905           c11                             6 c1233                           1
    x11905           c198                            1 c199                            6
    x11905           c20                             1 c200                            1
    x11905           c201                            6 c21                             6
    x11905           c211                            1 c212                            6
    x11905           c213                            1 c214                            6
    x11905           c22                             1 c23                             6
    x11905           c245                            4 c246                            1
    x11905           c247                            6 c262                            6
    x11905           c263                            5 c266                            6
    x11905           c272                            6 c295                            1
    x11905           c296                            2 c297                            2
    x11905           c303                            1 c304                            1
    x11905           c337                            2 c358                            2
    x11905           c359                            2 c360                            3
    x11905           c367                            2 c368                            2
    x11905           c392                            2 c408                            1
    x11905           c411                            6 c415                            1
    x11905           c419                            1 c420                            1
    x11905           c436                            2
    x11906           OBJ                   5.07947e+08 c10                             1
    x11906           c11                             7 c1233                           1
    x11906           c198                            1 c199                            6
    x11906           c20                             1 c200                            1
    x11906           c201                            7 c21                             7
    x11906           c211                            1 c212                            7
    x11906           c213                            1 c214                            7
    x11906           c22                             1 c23                             7
    x11906           c245                            4 c246                            1
    x11906           c247                            7 c262                            7
    x11906           c263                            5 c266                            7
    x11906           c272                            7 c295                            1
    x11906           c296                            2 c297                            2
    x11906           c303                            1 c304                            1
    x11906           c337                            2 c358                            2
    x11906           c359                            2 c360                            3
    x11906           c367                            2 c368                            3
    x11906           c392                            2 c408                            1
    x11906           c411                            7 c415                            1
    x11906           c419                            1 c420                            1
    x11906           c436                            2
    x11907           OBJ                   5.59607e+08 c10                             1
    x11907           c11                             8 c1233                           1
    x11907           c198                            1 c199                            6
    x11907           c20                             1 c200                            1
    x11907           c201                            8 c21                             8
    x11907           c211                            1 c212                            8
    x11907           c213                            1 c214                            8
    x11907           c22                             1 c23                             8
    x11907           c245                            4 c246                            1
    x11907           c247                            7 c262                            8
    x11907           c263                            5 c266                            8
    x11907           c272                            8 c295                            1
    x11907           c296                            2 c297                            2
    x11907           c303                            1 c304                            1
    x11907           c337                            2 c358                            2
    x11907           c359                            2 c360                            4
    x11907           c367                            2 c368                            3
    x11907           c392                            2 c408                            1
    x11907           c411                            8 c415                            2
    x11907           c419                            1 c420                            2
    x11907           c436                            2
    x11908           OBJ                   6.11267e+08 c10                             1
    x11908           c11                             9 c1233                           1
    x11908           c198                            1 c199                            6
    x11908           c20                             1 c200                            1
    x11908           c201                            8 c21                             9
    x11908           c211                            1 c212                            9
    x11908           c213                            1 c214                            8
    x11908           c22                             1 c23                             9
    x11908           c245                            4 c246                            1
    x11908           c247                            7 c262                            9
    x11908           c263                            5 c266                            9
    x11908           c272                            9 c295                            1
    x11908           c296                            2 c297                            2
    x11908           c303                            1 c304                            1
    x11908           c337                            2 c358                            2
    x11908           c359                            2 c360                            4
    x11908           c367                            2 c368                            3
    x11908           c392                            3 c408                            1
    x11908           c411                            9 c415                            2
    x11908           c419                            2 c420                            2
    x11908           c436                            2
    x11909           OBJ                   6.62927e+08 c10                             1
    x11909           c11                            10 c1233                           1
    x11909           c198                            1 c199                            6
    x11909           c20                             1 c200                            1
    x11909           c201                            8 c21                            10
    x11909           c211                            1 c212                            9
    x11909           c213                            1 c214                            8
    x11909           c22                             1 c23                            10
    x11909           c245                            4 c246                            1
    x11909           c247                            7 c262                           10
    x11909           c263                            5 c266                            9
    x11909           c272                           10 c295                            2
    x11909           c296                            2 c297                            2
    x11909           c303                            1 c304                            2
    x11909           c337                            2 c358                            3
    x11909           c359                            3 c360                            4
    x11909           c367                            2 c368                            4
    x11909           c392                            3 c408                            1
    x11909           c411                           10 c415                            2
    x11909           c419                            2 c420                            2
    x11909           c436                            2
    x11910           OBJ                   4.99294e+08 c10                             2
    x11910           c11                             4 c1233                           1
    x11910           c198                            2 c199                            4
    x11910           c20                             2 c200                            1
    x11910           c201                            4 c21                             4
    x11910           c211                            1 c212                            4
    x11910           c213                            1 c214                            4
    x11910           c22                             2 c23                             4
    x11910           c245                            4 c246                            1
    x11910           c247                            4 c262                            4
    x11910           c263                            5 c266                            4
    x11910           c272                            4 c295                            1
    x11910           c296                            1 c297                            2
    x11910           c303                            1 c304                            1
    x11910           c337                            1 c358                            1
    x11910           c359                            1 c360                            2
    x11910           c367                            1 c368                            2
    x11910           c392                            1 c408                            2
    x11910           c411                            4 c415                            1
    x11910           c419                            1 c420                            1
    x11910           c436                            2
    x11911           OBJ                   6.02614e+08 c10                             2
    x11911           c11                             6 c1233                           1
    x11911           c198                            2 c199                            6
    x11911           c20                             2 c200                            1
    x11911           c201                            6 c21                             6
    x11911           c211                            1 c212                            6
    x11911           c213                            1 c214                            6
    x11911           c22                             2 c23                             6
    x11911           c245                            6 c246                            1
    x11911           c247                            6 c262                            6
    x11911           c263                            5 c266                            6
    x11911           c272                            6 c295                            1
    x11911           c296                            2 c297                            2
    x11911           c303                            1 c304                            1
    x11911           c337                            2 c358                            2
    x11911           c359                            2 c360                            3
    x11911           c367                            2 c368                            2
    x11911           c392                            2 c408                            2
    x11911           c411                            6 c415                            1
    x11911           c419                            1 c420                            1
    x11911           c436                            2
    x11912           OBJ                   7.05934e+08 c10                             2
    x11912           c11                             8 c1233                           1
    x11912           c198                            2 c199                            8
    x11912           c20                             2 c200                            1
    x11912           c201                            8 c21                             8
    x11912           c211                            1 c212                            8
    x11912           c213                            1 c214                            8
    x11912           c22                             2 c23                             8
    x11912           c245                            6 c246                            1
    x11912           c247                            7 c262                            8
    x11912           c263                            5 c266                            8
    x11912           c272                            8 c295                            1
    x11912           c296                            2 c297                            2
    x11912           c303                            1 c304                            1
    x11912           c337                            2 c358                            2
    x11912           c359                            2 c360                            4
    x11912           c367                            2 c368                            3
    x11912           c392                            2 c408                            2
    x11912           c411                            8 c415                            2
    x11912           c419                            1 c420                            2
    x11912           c436                            2
    x11913           OBJ                   8.09254e+08 c10                             2
    x11913           c11                            10 c1233                           1
    x11913           c198                            2 c199                            8
    x11913           c20                             2 c200                            2
    x11913           c201                           10 c21                            10
    x11913           c211                            1 c212                            9
    x11913           c213                            2 c214                           10
    x11913           c22                             2 c23                            10
    x11913           c245                            6 c246                            2
    x11913           c247                            9 c262                           10
    x11913           c263                            5 c266                            9
    x11913           c272                           10 c295                            2
    x11913           c296                            2 c297                            2
    x11913           c303                            1 c304                            2
    x11913           c337                            2 c358                            3
    x11913           c359                            3 c360                            4
    x11913           c367                            2 c368                            4
    x11913           c392                            3 c408                            2
    x11913           c411                           10 c415                            2
    x11913           c419                            2 c420                            2
    x11913           c436                            2
    x11914           OBJ                   9.12574e+08 c10                             2
    x11914           c11                            12 c1233                           1
    x11914           c198                            2 c199                            8
    x11914           c20                             2 c200                            2
    x11914           c201                           10 c21                            12
    x11914           c211                            2 c212                           11
    x11914           c213                            2 c214                           10
    x11914           c22                             2 c23                            12
    x11914           c245                            6 c246                            2
    x11914           c247                            9 c262                           12
    x11914           c263                            5 c266                           11
    x11914           c272                           12 c295                            2
    x11914           c296                            2 c297                            2
    x11914           c303                            2 c304                            2
    x11914           c337                            2 c358                            3
    x11914           c359                            3 c360                            4
    x11914           c367                            3 c368                            4
    x11914           c392                            3 c408                            2
    x11914           c411                           10 c415                            2
    x11914           c419                            2 c420                            2
    x11914           c436                            2
    x11915           OBJ                   1.01589e+09 c10                             2
    x11915           c11                            12 c1233                           1
    x11915           c198                            2 c199                            8
    x11915           c20                             2 c200                            2
    x11915           c201                           10 c21                            14
    x11915           c211                            2 c212                           11
    x11915           c213                            2 c214                           10
    x11915           c22                             2 c23                            14
    x11915           c245                            6 c246                            2
    x11915           c247                            9 c262                           12
    x11915           c263                            5 c266                           11
    x11915           c272                           14 c295                            2
    x11915           c296                            2 c297                            2
    x11915           c303                            2 c304                            2
    x11915           c337                            2 c358                            3
    x11915           c359                            3 c360                            4
    x11915           c367                            3 c368                            4
    x11915           c392                            3 c408                            2
    x11915           c411                           10 c415                            2
    x11915           c419                            2 c420                            2
    x11915           c436                            2
    x11916           OBJ                   1.11921e+09 c10                             2
    x11916           c11                            12 c1233                           1
    x11916           c198                            2 c199                            8
    x11916           c20                             2 c200                            2
    x11916           c201                           10 c21                            16
    x11916           c211                            2 c212                           11
    x11916           c213                            2 c214                           10
    x11916           c22                             2 c23                            16
    x11916           c245                            6 c246                            2
    x11916           c247                            9 c262                           12
    x11916           c263                            5 c266                           11
    x11916           c272                           16 c295                            2
    x11916           c296                            2 c297                            2
    x11916           c303                            2 c304                            2
    x11916           c337                            2 c358                            3
    x11916           c359                            3 c360                            4
    x11916           c367                            3 c368                            4
    x11916           c392                            3 c408                            2
    x11916           c411                           10 c415                            2
    x11916           c419                            2 c420                            2
    x11916           c436                            2
    x11917           OBJ                   1.22253e+09 c10                             2
    x11917           c11                            12 c1233                           1
    x11917           c198                            2 c199                            8
    x11917           c20                             2 c200                            2
    x11917           c201                           10 c21                            18
    x11917           c211                            2 c212                           11
    x11917           c213                            2 c214                           10
    x11917           c22                             2 c23                            18
    x11917           c245                            6 c246                            2
    x11917           c247                            9 c262                           12
    x11917           c263                            5 c266                           11
    x11917           c272                           18 c295                            2
    x11917           c296                            2 c297                            2
    x11917           c303                            2 c304                            2
    x11917           c337                            2 c358                            3
    x11917           c359                            3 c360                            4
    x11917           c367                            3 c368                            4
    x11917           c392                            3 c408                            2
    x11917           c411                           10 c415                            2
    x11917           c419                            2 c420                            2
    x11917           c436                            2
    x11918           OBJ                   7.32011e+08 c10                             2
    x11918           c11                             6 c1233                           1
    x11918           c198                            3 c199                            6
    x11918           c20                             3 c200                            1
    x11918           c201                            6 c21                             6
    x11918           c211                            1 c212                            6
    x11918           c213                            1 c214                            6
    x11918           c22                             3 c23                             6
    x11918           c245                            6 c246                            1
    x11918           c247                            6 c262                            6
    x11918           c263                            5 c266                            6
    x11918           c272                            6 c295                            1
    x11918           c296                            2 c297                            2
    x11918           c303                            1 c304                            1
    x11918           c337                            2 c358                            2
    x11918           c359                            2 c360                            3
    x11918           c367                            2 c368                            2
    x11918           c392                            2 c408                            3
    x11918           c411                            6 c415                            1
    x11918           c419                            1 c420                            1
    x11918           c436                            2
    MARK0001  'MARKER'                 'INTEND'
RHS
    RHS1              c10                             0
    RHS1              c11                             0
    RHS1              c1233                           0
    RHS1              c198                            0
    RHS1              c199                            0
    RHS1              c20                             0
    RHS1              c200                            0
    RHS1              c201                            0
    RHS1              c21                             0
    RHS1              c211                            0
    RHS1              c212                            0
    RHS1              c213                            0
    RHS1              c214                            0
    RHS1              c22                             0
    RHS1              c23                             0
    RHS1              c245                            0
    RHS1              c246                            0
    RHS1              c247                            0
    RHS1              c262                            0
    RHS1              c263                            0
    RHS1              c266                            0
    RHS1              c272                            0
    RHS1              c295                            0
    RHS1              c296                            0
    RHS1              c297                            0
    RHS1              c303                            0
    RHS1              c304                            0
    RHS1              c337                            0
    RHS1              c358                            0
    RHS1              c359                            0
    RHS1              c360                            0
    RHS1              c367                            0
    RHS1              c368                            0
    RHS1              c392                            0
    RHS1              c408                            0
    RHS1              c411                            0
    RHS1              c415                            0
    RHS1              c419                            0
    RHS1              c420                            0
    RHS1              c436                            0
BOUNDS
 BV BND1              x11901
 BV BND1              x11902
 BV BND1              x11903
 BV BND1              x11904
 BV BND1              x11905
 BV BND1              x11906
 BV BND1              x11907
 BV BND1              x11908
 BV BND1              x11909
 BV BND1              x11910
 BV BND1              x11911
 BV BND1              x11912
 BV BND1              x11913
 BV BND1              x11914
 BV BND1              x11915
 BV BND1              x11916
 BV BND1              x11917
 BV BND1              x11918
ENDATA
