NAME          neos-3402294-bobin_ds
OBJSENSE
 MIN
ROWS
 N  OBJ
 E  R0040
 E  R0041
 G  R0001
 G  R0002
 G  R0003
 G  R0004
 E  R0048
 E  R0049
 E  R0077
 E  R0078
 E  R0079
 E  R0080
 G  R0285
 G  R0286
 G  R0287
 G  R0288
 G  R0293
 G  R0294
 G  R0295
 G  R0296
 G  R0301
 G  R0302
 G  R0303
 G  R0304
 G  R0309
 G  R0310
 G  R0311
 G  R0312
 G  R0313
 G  R0314
 G  R0315
 G  R0316
 G  R0321
 G  R0322
 G  R0323
 G  R0324
 G  R0329
 G  R0330
 G  R0331
 G  R0332
COLUMNS
    MARK0000  'MARKER'                 'INTORG'
    C0316            OBJ                             0 R0040                           1
    C0316            R0001                           1 R0077                          25
    C0316            R0285                           1 R0286                           1
    C0316            R0287                           1 R0288                           1
    C0316            R0293                           1 R0294                           1
    C0316            R0295                           1 R0296                           1
    C0316            R0301                           1 R0302                           1
    C0316            R0303                           1 R0304                           1
    C0316            R0309                           1 R0310                           1
    C0316            R0311                           1 R0312                           1
    C0316            R0313                           1 R0314                           1
    C0316            R0315                           1 R0316                           1
    C0316            R0321                           1 R0322                           1
    C0316            R0323                           1 R0324                           1
    C0316            R0329                           1 R0330                           1
    C0316            R0331                           1 R0332                           1
    C0317            OBJ                             0 R0041                           1
    C0317            R0001                           1 R0077                          25
    C0317            R0285                           1 R0286                           1
    C0317            R0287                           1 R0288                           1
    C0317            R0293                           1 R0294                           1
    C0317            R0295                           1 R0296                           1
    C0317            R0301                           1 R0302                           1
    C0317            R0303                           1 R0304                           1
    C0317            R0309                           1 R0310                           1
    C0317            R0311                           1 R0312                           1
    C0317            R0313                           1 R0314                           1
    C0317            R0315                           1 R0316                           1
    C0317            R0321                           1 R0322                           1
    C0317            R0323                           1 R0324                           1
    C0317            R0329                           1 R0330                           1
    C0317            R0331                           1 R0332                           1
    C0324            OBJ                             0 R0001                           1
    C0324            R0048                           1 R0077                          25
    C0324            R0285                           1 R0286                           1
    C0324            R0287                           1 R0288                           1
    C0324            R0293                           1 R0294                           1
    C0324            R0295                           1 R0296                           1
    C0324            R0301                           1 R0302                           1
    C0324            R0303                           1 R0304                           1
    C0324            R0309                           1 R0310                           1
    C0324            R0311                           1 R0312                           1
    C0324            R0313                           1 R0314                           1
    C0324            R0315                           1 R0316                           1
    C0324            R0321                           1 R0322                           1
    C0324            R0323                           1 R0324                           1
    C0324            R0329                           1 R0330                           1
    C0324            R0331                           1 R0332                           1
    C0325            OBJ                             0 R0001                           1
    C0325            R0049                           1 R0077                          25
    C0325            R0285                           1 R0286                           1
    C0325            R0287                           1 R0288                           1
    C0325            R0293                           1 R0294                           1
    C0325            R0295                           1 R0296                           1
    C0325            R0301                           1 R0302                           1
    C0325            R0303                           1 R0304                           1
    C0325            R0309                           1 R0310                           1
    C0325            R0311                           1 R0312                           1
    C0325            R0313                           1 R0314                           1
    C0325            R0315                           1 R0316                           1
    C0325            R0321                           1 R0322                           1
    C0325            R0323                           1 R0324                           1
    C0325            R0329                           1 R0330                           1
    C0325            R0331                           1 R0332                           1
    C0380            OBJ                             0 R0040                           1
    C0380            R0002                           1 R0078                         125
    C0381            OBJ                             0 R0041                           1
    C0381            R0002                           1 R0078                         125
    C0388            OBJ                             0 R0002                           1
    C0388            R0048                           1 R0078                         125
    C0389            OBJ                             0 R0002                           1
    C0389            R0049                           1 R0078                         125
    C0444            OBJ                             0 R0040                           1
    C0444            R0003                           1 R0079                         125
    C0445            OBJ                             0 R0041                           1
    C0445            R0003                           1 R0079                         125
    C0452            OBJ                             0 R0003                           1
    C0452            R0048                           1 R0079                         125
    C0453            OBJ                             0 R0003                           1
    C0453            R0049                           1 R0079                         125
    C0508            OBJ                             0 R0040                           1
    C0508            R0004                           1 R0080                         125
    C0509            OBJ                             0 R0041                           1
    C0509            R0004                           1 R0080                         125
    C0516            OBJ                             0 R0004                           1
    C0516            R0048                           1 R0080                         125
    C0517            OBJ                             0 R0004                           1
    C0517            R0049                           1 R0080                         125
    C0572            OBJ                             0 R0040                           1
    C0573            OBJ                             0 R0041                           1
    MARK0001  'MARKER'                 'INTEND'
RHS
    RHS1              R0040                           1
    RHS1              R0041                           1
    RHS1              R0001                           1
    RHS1              R0002                           1
    RHS1              R0003                           1
    RHS1              R0004                           1
    RHS1              R0048                           1
    RHS1              R0049                           1
    RHS1              R0077                          56
    RHS1              R0078                         304
    RHS1              R0079                         232
    RHS1              R0080                        1304
    RHS1              R0285                          -1
    RHS1              R0286                          -1
    RHS1              R0287                          -1
    RHS1              R0288                          -1
    RHS1              R0293                          -1
    RHS1              R0294                          -1
    RHS1              R0295                          -1
    RHS1              R0296                          -1
    RHS1              R0301                          -1
    RHS1              R0302                          -1
    RHS1              R0303                          -1
    RHS1              R0304                          -1
    RHS1              R0309                          -1
    RHS1              R0310                          -1
    RHS1              R0311                          -1
    RHS1              R0312                          -1
    RHS1              R0313                          -1
    RHS1              R0314                          -1
    RHS1              R0315                          -1
    RHS1              R0316                          -1
    RHS1              R0321                          -1
    RHS1              R0322                          -1
    RHS1              R0323                          -1
    RHS1              R0324                          -1
    RHS1              R0329                          -1
    RHS1              R0330                          -1
    RHS1              R0331                          -1
    RHS1              R0332                          -1
BOUNDS
 BV BND1              C0316
 BV BND1              C0317
 BV BND1              C0324
 BV BND1              C0325
 BV BND1              C0380
 BV BND1              C0381
 BV BND1              C0388
 BV BND1              C0389
 BV BND1              C0444
 BV BND1              C0445
 BV BND1              C0452
 BV BND1              C0453
 BV BND1              C0508
 BV BND1              C0509
 BV BND1              C0516
 BV BND1              C0517
 BV BND1              C0572
 BV BND1              C0573
ENDATA
