NAME          rail01_ds
OBJSENSE
 MIN
ROWS
 N  OBJ
 L  c45541
 L  c46402
 L  c46403
 L  c46404
 L  c46405
 L  c46406
 L  c46407
 L  c46408
 L  c46409
 L  c46410
 L  c46411
 L  c46412
 L  c46413
 L  c46414
 L  c46415
 L  c46416
 L  c46417
 L  c46418
 L  c46419
 L  c46420
 L  c46421
 L  c46422
 L  c46423
 L  c46424
 L  c46425
 L  c46426
 L  c46427
 L  c46428
 L  c46429
 L  c46430
 L  c46431
 L  c46432
 L  c46433
 L  c46434
 L  c46435
 L  c46436
 L  c46437
 L  c46438
 L  c46439
 L  c46440
COLUMNS
    MARK0000  'MARKER'                 'INTORG'
    x6585            OBJ                             0 c45541                       -226
    x6585            c46402                          1 c46403                          1
    x6585            c46404                          1 c46405                          1
    x6585            c46406                          1 c46407                          1
    x6585            c46408                          1 c46409                          1
    x6585            c46410                          1 c46411                          1
    x6585            c46412                          1 c46413                          1
    x6585            c46414                          1 c46415                          1
    x6585            c46416                          1 c46417                          1
    x6585            c46418                          1 c46419                          1
    x6585            c46420                          1 c46421                          1
    x6585            c46422                          1 c46423                          1
    x6585            c46424                          1 c46425                          1
    x6585            c46426                          1 c46427                          1
    x6585            c46428                          1 c46429                          1
    x6585            c46430                          1 c46431                          1
    x6585            c46432                          1 c46433                          1
    x6585            c46434                          1 c46435                          1
    x6585            c46436                          1 c46437                          1
    x6585            c46438                          1 c46439                          1
    x6585            c46440                          1
    x6595            OBJ                             0 c45541                       -226
    x6595            c46402                          1 c46403                          1
    x6595            c46404                          1 c46405                          1
    x6595            c46406                          1 c46407                          1
    x6595            c46408                          1 c46409                          1
    x6595            c46410                          1 c46411                          1
    x6595            c46412                          1 c46413                          1
    x6595            c46414                          1 c46415                          1
    x6595            c46416                          1 c46417                          1
    x6595            c46418                          1 c46419                          1
    x6595            c46420                          1 c46421                          1
    x6595            c46422                          1 c46423                          1
    x6595            c46424                          1 c46425                          1
    x6595            c46426                          1 c46427                          1
    x6595            c46428                          1 c46429                          1
    x6595            c46430                          1 c46431                          1
    x6595            c46432                          1 c46433                          1
    x6595            c46434                          1 c46435                          1
    x6595            c46436                          1 c46437                          1
    x6595            c46438                          1 c46439                          1
    x6595            c46440                          1
    x6605            OBJ                             0 c45541                       -226
    x6605            c46402                          1 c46403                          1
    x6605            c46404                          1 c46405                          1
    x6605            c46406                          1 c46407                          1
    x6605            c46408                          1 c46409                          1
    x6605            c46410                          1 c46411                          1
    x6605            c46412                          1 c46413                          1
    x6605            c46414                          1 c46415                          1
    x6605            c46416                          1 c46417                          1
    x6605            c46418                          1 c46419                          1
    x6605            c46420                          1 c46421                          1
    x6605            c46422                          1 c46423                          1
    x6605            c46424                          1 c46425                          1
    x6605            c46426                          1 c46427                          1
    x6605            c46428                          1 c46429                          1
    x6605            c46430                          1 c46431                          1
    x6605            c46432                          1 c46433                          1
    x6605            c46434                          1 c46435                          1
    x6605            c46436                          1 c46437                          1
    x6605            c46438                          1 c46439                          1
    x6605            c46440                          1
    x6615            OBJ                             0 c45541                       -226
    x6615            c46402                          1 c46403                          1
    x6615            c46404                          1 c46405                          1
    x6615            c46406                          1 c46407                          1
    x6615            c46408                          1 c46409                          1
    x6615            c46410                          1 c46411                          1
    x6615            c46412                          1 c46413                          1
    x6615            c46414                          1 c46415                          1
    x6615            c46416                          1 c46417                          1
    x6615            c46418                          1 c46419                          1
    x6615            c46420                          1 c46421                          1
    x6615            c46422                          1 c46423                          1
    x6615            c46424                          1 c46425                          1
    x6615            c46426                          1 c46427                          1
    x6615            c46428                          1 c46429                          1
    x6615            c46430                          1 c46431                          1
    x6615            c46432                          1 c46433                          1
    x6615            c46434                          1 c46435                          1
    x6615            c46436                          1 c46437                          1
    x6615            c46438                          1 c46439                          1
    x6615            c46440                          1
    x6575            OBJ                             0 c45541                       -226
    x6575            c46402                          1 c46403                          1
    x6575            c46404                          1 c46405                          1
    x6575            c46406                          1 c46407                          1
    x6575            c46408                          1 c46409                          1
    x6575            c46410                          1 c46411                          1
    x6575            c46412                          1 c46413                          1
    x6575            c46414                          1 c46415                          1
    x6575            c46416                          1 c46417                          1
    x6575            c46418                          1 c46419                          1
    x6575            c46420                          1 c46421                          1
    x6575            c46422                          1 c46423                          1
    x6575            c46424                          1 c46425                          1
    x6575            c46426                          1 c46427                          1
    x6575            c46428                          1 c46429                          1
    x6575            c46430                          1 c46431                          1
    x6575            c46432                          1 c46433                          1
    x6575            c46434                          1 c46435                          1
    x6575            c46436                          1 c46437                          1
    x6575            c46438                          1 c46439                          1
    x6575            c46440                          1
    x6565            OBJ                             0 c45541                       -226
    x6565            c46402                          1 c46403                          1
    x6565            c46404                          1 c46405                          1
    x6565            c46406                          1 c46407                          1
    x6565            c46408                          1 c46409                          1
    x6565            c46410                          1 c46411                          1
    x6565            c46412                          1 c46413                          1
    x6565            c46414                          1 c46415                          1
    x6565            c46416                          1 c46417                          1
    x6565            c46418                          1 c46419                          1
    x6565            c46420                          1 c46421                          1
    x6565            c46422                          1 c46423                          1
    x6565            c46424                          1 c46425                          1
    x6565            c46426                          1 c46427                          1
    x6565            c46428                          1 c46429                          1
    x6565            c46430                          1 c46431                          1
    x6565            c46432                          1 c46433                          1
    x6565            c46434                          1 c46435                          1
    x6565            c46436                          1 c46437                          1
    x6565            c46438                          1 c46439                          1
    x6565            c46440                          1
    x6584            OBJ                             0 c45541                       -216
    x6584            c46402                          1 c46403                          1
    x6584            c46404                          1 c46405                          1
    x6584            c46406                          1 c46407                          1
    x6584            c46408                          1 c46409                          1
    x6584            c46410                          1 c46411                          1
    x6584            c46412                          1 c46413                          1
    x6584            c46414                          1 c46415                          1
    x6584            c46416                          1 c46417                          1
    x6584            c46418                          1 c46419                          1
    x6584            c46420                          1 c46421                          1
    x6584            c46422                          1 c46423                          1
    x6584            c46424                          1 c46425                          1
    x6584            c46426                          1 c46427                          1
    x6584            c46428                          1 c46429                          1
    x6584            c46430                          1 c46431                          1
    x6584            c46432                          1 c46433                          1
    x6584            c46434                          1 c46435                          1
    x6584            c46436                          1 c46437                          1
    x6584            c46438                          1 c46439                          1
    x6584            c46440                          1
    x6594            OBJ                             0 c45541                       -216
    x6594            c46402                          1 c46403                          1
    x6594            c46404                          1 c46405                          1
    x6594            c46406                          1 c46407                          1
    x6594            c46408                          1 c46409                          1
    x6594            c46410                          1 c46411                          1
    x6594            c46412                          1 c46413                          1
    x6594            c46414                          1 c46415                          1
    x6594            c46416                          1 c46417                          1
    x6594            c46418                          1 c46419                          1
    x6594            c46420                          1 c46421                          1
    x6594            c46422                          1 c46423                          1
    x6594            c46424                          1 c46425                          1
    x6594            c46426                          1 c46427                          1
    x6594            c46428                          1 c46429                          1
    x6594            c46430                          1 c46431                          1
    x6594            c46432                          1 c46433                          1
    x6594            c46434                          1 c46435                          1
    x6594            c46436                          1 c46437                          1
    x6594            c46438                          1 c46439                          1
    x6594            c46440                          1
    x6604            OBJ                             0 c45541                       -216
    x6604            c46402                          1 c46403                          1
    x6604            c46404                          1 c46405                          1
    x6604            c46406                          1 c46407                          1
    x6604            c46408                          1 c46409                          1
    x6604            c46410                          1 c46411                          1
    x6604            c46412                          1 c46413                          1
    x6604            c46414                          1 c46415                          1
    x6604            c46416                          1 c46417                          1
    x6604            c46418                          1 c46419                          1
    x6604            c46420                          1 c46421                          1
    x6604            c46422                          1 c46423                          1
    x6604            c46424                          1 c46425                          1
    x6604            c46426                          1 c46427                          1
    x6604            c46428                          1 c46429                          1
    x6604            c46430                          1 c46431                          1
    x6604            c46432                          1 c46433                          1
    x6604            c46434                          1 c46435                          1
    x6604            c46436                          1 c46437                          1
    x6604            c46438                          1 c46439                          1
    x6604            c46440                          1
    x6614            OBJ                             0 c45541                       -216
    x6614            c46402                          1 c46403                          1
    x6614            c46404                          1 c46405                          1
    x6614            c46406                          1 c46407                          1
    x6614            c46408                          1 c46409                          1
    x6614            c46410                          1 c46411                          1
    x6614            c46412                          1 c46413                          1
    x6614            c46414                          1 c46415                          1
    x6614            c46416                          1 c46417                          1
    x6614            c46418                          1 c46419                          1
    x6614            c46420                          1 c46421                          1
    x6614            c46422                          1 c46423                          1
    x6614            c46424                          1 c46425                          1
    x6614            c46426                          1 c46427                          1
    x6614            c46428                          1 c46429                          1
    x6614            c46430                          1 c46431                          1
    x6614            c46432                          1 c46433                          1
    x6614            c46434                          1 c46435                          1
    x6614            c46436                          1 c46437                          1
    x6614            c46438                          1 c46439                          1
    x6614            c46440                          1
    x6624            OBJ                             0 c45541                       -216
    x6624            c46402                          1 c46403                          1
    x6624            c46404                          1 c46405                          1
    x6624            c46406                          1 c46407                          1
    x6624            c46408                          1 c46409                          1
    x6624            c46410                          1 c46411                          1
    x6624            c46412                          1 c46413                          1
    x6624            c46414                          1 c46415                          1
    x6624            c46416                          1 c46417                          1
    x6624            c46418                          1 c46419                          1
    x6624            c46420                          1 c46421                          1
    x6624            c46422                          1 c46423                          1
    x6624            c46424                          1 c46425                          1
    x6624            c46426                          1 c46427                          1
    x6624            c46428                          1 c46429                          1
    x6624            c46430                          1 c46431                          1
    x6624            c46432                          1 c46433                          1
    x6624            c46434                          1 c46435                          1
    x6624            c46436                          1 c46437                          1
    x6624            c46438                          1 c46439                          1
    x6624            c46440                          1
    x6633            OBJ                             0 c45541                       -216
    x6633            c46402                          1 c46403                          1
    x6633            c46404                          1 c46405                          1
    x6633            c46406                          1 c46407                          1
    x6633            c46408                          1 c46409                          1
    x6633            c46410                          1 c46411                          1
    x6633            c46412                          1 c46413                          1
    x6633            c46414                          1 c46415                          1
    x6633            c46416                          1 c46417                          1
    x6633            c46418                          1 c46419                          1
    x6633            c46420                          1 c46421                          1
    x6633            c46422                          1 c46423                          1
    x6633            c46424                          1 c46425                          1
    x6633            c46426                          1 c46427                          1
    x6633            c46428                          1 c46429                          1
    x6633            c46430                          1 c46431                          1
    x6633            c46432                          1 c46433                          1
    x6633            c46434                          1 c46435                          1
    x6633            c46436                          1 c46437                          1
    x6633            c46438                          1 c46439                          1
    x6633            c46440                          1
    x6555            OBJ                             0 c45541                       -226
    x6555            c46402                          1 c46403                          1
    x6555            c46404                          1 c46405                          1
    x6555            c46406                          1 c46407                          1
    x6555            c46408                          1 c46409                          1
    x6555            c46410                          1 c46411                          1
    x6555            c46412                          1 c46413                          1
    x6555            c46414                          1 c46415                          1
    x6555            c46416                          1 c46417                          1
    x6555            c46418                          1 c46419                          1
    x6555            c46420                          1 c46421                          1
    x6555            c46422                          1 c46423                          1
    x6555            c46424                          1 c46425                          1
    x6555            c46426                          1 c46427                          1
    x6555            c46428                          1 c46429                          1
    x6555            c46430                          1 c46431                          1
    x6555            c46432                          1 c46433                          1
    x6555            c46434                          1 c46435                          1
    x6555            c46436                          1 c46437                          1
    x6555            c46438                          1 c46439                          1
    x6555            c46440                          1
    x6574            OBJ                             0 c45541                       -216
    x6574            c46402                          1 c46403                          1
    x6574            c46404                          1 c46405                          1
    x6574            c46406                          1 c46407                          1
    x6574            c46408                          1 c46409                          1
    x6574            c46410                          1 c46411                          1
    x6574            c46412                          1 c46413                          1
    x6574            c46414                          1 c46415                          1
    x6574            c46416                          1 c46417                          1
    x6574            c46418                          1 c46419                          1
    x6574            c46420                          1 c46421                          1
    x6574            c46422                          1 c46423                          1
    x6574            c46424                          1 c46425                          1
    x6574            c46426                          1 c46427                          1
    x6574            c46428                          1 c46429                          1
    x6574            c46430                          1 c46431                          1
    x6574            c46432                          1 c46433                          1
    x6574            c46434                          1 c46435                          1
    x6574            c46436                          1 c46437                          1
    x6574            c46438                          1 c46439                          1
    x6574            c46440                          1
    x6649            OBJ                             0 c45541                       -206
    x6649            c46402                          1 c46403                          1
    x6649            c46404                          1 c46405                          1
    x6649            c46406                          1 c46407                          1
    x6649            c46408                          1 c46409                          1
    x6649            c46410                          1 c46411                          1
    x6649            c46412                          1 c46413                          1
    x6649            c46414                          1 c46415                          1
    x6649            c46416                          1 c46417                          1
    x6649            c46418                          1 c46419                          1
    x6649            c46420                          1 c46421                          1
    x6649            c46422                          1 c46423                          1
    x6649            c46424                          1 c46425                          1
    x6649            c46426                          1 c46427                          1
    x6649            c46428                          1 c46429                          1
    x6649            c46430                          1 c46431                          1
    x6649            c46432                          1 c46433                          1
    x6649            c46434                          1 c46435                          1
    x6649            c46436                          1 c46437                          1
    x6649            c46438                          1 c46439                          1
    x6649            c46440                          1
    x6663            OBJ                             0 c45541                       -196
    x6663            c46402                          1 c46403                          1
    x6663            c46404                          1 c46405                          1
    x6663            c46406                          1 c46407                          1
    x6663            c46408                          1 c46409                          1
    x6663            c46410                          1 c46411                          1
    x6663            c46412                          1 c46413                          1
    x6663            c46414                          1 c46415                          1
    x6663            c46416                          1 c46417                          1
    x6663            c46418                          1 c46419                          1
    x6663            c46420                          1 c46421                          1
    x6663            c46422                          1 c46423                          1
    x6663            c46424                          1 c46425                          1
    x6663            c46426                          1 c46427                          1
    x6663            c46428                          1 c46429                          1
    x6663            c46430                          1 c46431                          1
    x6663            c46432                          1 c46433                          1
    x6663            c46434                          1 c46435                          1
    x6663            c46436                          1 c46437                          1
    x6663            c46438                          1 c46439                          1
    x6663            c46440                          1
    x6675            OBJ                             0 c45541                       -186
    x6675            c46402                          1 c46403                          1
    x6675            c46404                          1 c46405                          1
    x6675            c46406                          1 c46407                          1
    x6675            c46408                          1 c46409                          1
    x6675            c46410                          1 c46411                          1
    x6675            c46412                          1 c46413                          1
    x6675            c46414                          1 c46415                          1
    x6675            c46416                          1 c46417                          1
    x6675            c46418                          1 c46419                          1
    x6675            c46420                          1 c46421                          1
    x6675            c46422                          1 c46423                          1
    x6675            c46424                          1 c46425                          1
    x6675            c46426                          1 c46427                          1
    x6675            c46428                          1 c46429                          1
    x6675            c46430                          1 c46431                          1
    x6675            c46432                          1 c46433                          1
    x6675            c46434                          1 c46435                          1
    x6675            c46436                          1 c46437                          1
    x6675            c46438                          1 c46439                          1
    x6675            c46440                          1
    x5531            OBJ                             0
    MARK0001  'MARKER'                 'INTEND'
RHS
    RHS1              c45541                          0
    RHS1              c46402                          0
    RHS1              c46403                          0
    RHS1              c46404                          0
    RHS1              c46405                          0
    RHS1              c46406                          0
    RHS1              c46407                          0
    RHS1              c46408                          0
    RHS1              c46409                          0
    RHS1              c46410                          0
    RHS1              c46411                          0
    RHS1              c46412                          0
    RHS1              c46413                          0
    RHS1              c46414                          0
    RHS1              c46415                          0
    RHS1              c46416                          0
    RHS1              c46417                          0
    RHS1              c46418                          0
    RHS1              c46419                          0
    RHS1              c46420                          0
    RHS1              c46421                          0
    RHS1              c46422                          0
    RHS1              c46423                          0
    RHS1              c46424                          0
    RHS1              c46425                          0
    RHS1              c46426                          0
    RHS1              c46427                          0
    RHS1              c46428                          0
    RHS1              c46429                          0
    RHS1              c46430                          0
    RHS1              c46431                          0
    RHS1              c46432                          0
    RHS1              c46433                          0
    RHS1              c46434                          0
    RHS1              c46435                          0
    RHS1              c46436                          0
    RHS1              c46437                          0
    RHS1              c46438                          0
    RHS1              c46439                          0
    RHS1              c46440                          0
BOUNDS
 BV BND1              x6585
 BV BND1              x6595
 BV BND1              x6605
 BV BND1              x6615
 BV BND1              x6575
 BV BND1              x6565
 BV BND1              x6584
 BV BND1              x6594
 BV BND1              x6604
 BV BND1              x6614
 BV BND1              x6624
 BV BND1              x6633
 BV BND1              x6555
 BV BND1              x6574
 BV BND1              x6649
 BV BND1              x6663
 BV BND1              x6675
 BV BND1              x5531
ENDATA
