NAME          neos-860300_ds
OBJSENSE
 MIN
ROWS
 N  OBJ
 G  R0345
 G  R0846
 G  R0343
 G  R0353
 G  R0361
 G  R0377
 G  R0409
 G  R0473
 G  R0590
 G  R0601
 G  R0718
 G  R0782
 G  R0814
 G  R0830
 G  R0838
 G  R0848
 G  R0351
 G  R0359
 G  R0369
 G  R0375
 G  R0385
 G  R0393
 G  R0407
 G  R0417
 G  R0425
 G  R0441
 G  R0462
 G  R0471
 G  R0481
 G  R0489
 G  R0505
 G  R0526
 G  R0537
 G  R0558
 G  R0574
 G  R0582
 G  R0592
 G  R0599
 G  R0609
 G  R0617
COLUMNS
    MARK0000  'MARKER'                 'INTORG'
    C0002            OBJ                           743 R0345                          21
    C0002            R0846                          21 R0353                          21
    C0002            R0361                          21 R0377                          21
    C0002            R0409                          21 R0473                          21
    C0002            R0590                          21 R0601                          21
    C0002            R0718                          21 R0782                          21
    C0002            R0814                          21 R0830                          21
    C0002            R0838                          21 R0369                          21
    C0002            R0385                          21 R0393                          21
    C0002            R0417                          21 R0425                          21
    C0002            R0441                          21 R0462                          21
    C0002            R0481                          21 R0489                          21
    C0002            R0505                          21 R0526                          21
    C0002            R0537                          21 R0558                          21
    C0002            R0574                          21 R0582                          21
    C0002            R0609                          21 R0617                          21
    C0022            OBJ                          1203 R0343                          21
    C0022            R0848                          21 R0351                          21
    C0022            R0359                          21 R0375                          21
    C0022            R0407                          21 R0471                          21
    C0022            R0592                          21 R0599                          21
    C0042            OBJ                           635 R0345                          21
    C0042            R0846                          21 R0343                          21
    C0042            R0361                          21 R0377                          21
    C0042            R0409                          21 R0473                          21
    C0042            R0590                          21 R0601                          21
    C0042            R0718                          21 R0782                          21
    C0042            R0814                          21 R0830                          21
    C0042            R0848                          21 R0359                          21
    C0042            R0375                          21 R0393                          21
    C0042            R0407                          21 R0425                          21
    C0042            R0441                          21 R0462                          21
    C0042            R0471                          21 R0489                          21
    C0042            R0505                          21 R0526                          21
    C0042            R0537                          21 R0558                          21
    C0042            R0574                          21 R0592                          21
    C0042            R0599                          21 R0617                          21
    C0062            OBJ                           550 R0345                          21
    C0062            R0846                          21 R0343                          21
    C0062            R0353                          21 R0377                          21
    C0062            R0409                          21 R0473                          21
    C0062            R0590                          21 R0601                          21
    C0062            R0718                          21 R0782                          21
    C0062            R0814                          21 R0838                          21
    C0062            R0848                          21 R0351                          21
    C0062            R0375                          21 R0385                          21
    C0062            R0407                          21 R0417                          21
    C0062            R0441                          21 R0462                          21
    C0062            R0471                          21 R0481                          21
    C0062            R0505                          21 R0526                          21
    C0062            R0537                          21 R0558                          21
    C0062            R0582                          21 R0592                          21
    C0062            R0599                          21 R0609                          21
    C0082            OBJ                           663 R0345                          21
    C0082            R0846                          21 R0343                          21
    C0082            R0353                          21 R0361                          21
    C0082            R0409                          21 R0473                          21
    C0082            R0590                          21 R0601                          21
    C0082            R0718                          21 R0782                          21
    C0082            R0830                          21 R0838                          21
    C0082            R0848                          21 R0351                          21
    C0082            R0359                          21 R0369                          21
    C0082            R0407                          21 R0417                          21
    C0082            R0425                          21 R0462                          21
    C0082            R0471                          21 R0481                          21
    C0082            R0489                          21 R0526                          21
    C0082            R0537                          21 R0574                          21
    C0082            R0582                          21 R0592                          21
    C0082            R0599                          21 R0609                          21
    C0082            R0617                          21
    C0102            OBJ                           800 R0345                          21
    C0102            R0846                          21 R0343                          21
    C0102            R0353                          21 R0361                          21
    C0102            R0377                          21 R0473                          21
    C0102            R0590                          21 R0601                          21
    C0102            R0718                          21 R0814                          21
    C0102            R0830                          21 R0838                          21
    C0102            R0848                          21 R0351                          21
    C0102            R0359                          21 R0369                          21
    C0102            R0375                          21 R0385                          21
    C0102            R0393                          21 R0462                          21
    C0102            R0471                          21 R0481                          21
    C0102            R0489                          21 R0505                          21
    C0102            R0558                          21 R0574                          21
    C0102            R0582                          21 R0592                          21
    C0102            R0599                          21 R0609                          21
    C0102            R0617                          21
    C0122            OBJ                           128 R0345                          21
    C0122            R0846                          21 R0343                          21
    C0122            R0353                          21 R0361                          21
    C0122            R0377                          21 R0409                          21
    C0122            R0590                          21 R0601                          21
    C0122            R0782                          21 R0814                          21
    C0122            R0830                          21 R0838                          21
    C0122            R0848                          21 R0351                          21
    C0122            R0359                          21 R0369                          21
    C0122            R0375                          21 R0385                          21
    C0122            R0393                          21 R0407                          21
    C0122            R0417                          21 R0425                          21
    C0122            R0441                          21 R0526                          21
    C0122            R0558                          21 R0574                          21
    C0122            R0582                          21 R0592                          21
    C0122            R0599                          21 R0609                          21
    C0122            R0617                          21
    C0142            OBJ                           127 R0345                          21
    C0142            R0846                          21 R0343                          21
    C0142            R0353                          21 R0361                          21
    C0142            R0377                          21 R0409                          21
    C0142            R0473                          21 R0718                          21
    C0142            R0782                          21 R0814                          21
    C0142            R0830                          21 R0838                          21
    C0142            R0848                          21 R0351                          21
    C0142            R0359                          21 R0369                          21
    C0142            R0375                          21 R0385                          21
    C0142            R0393                          21 R0407                          21
    C0142            R0417                          21 R0425                          21
    C0142            R0441                          21 R0471                          21
    C0142            R0481                          21 R0489                          21
    C0142            R0505                          21 R0537                          21
    C0181            OBJ                           562 R0345                          21
    C0181            R0846                          21 R0353                          21
    C0181            R0361                          21 R0377                          21
    C0181            R0409                          21 R0473                          21
    C0181            R0590                          21 R0601                          21
    C0181            R0718                          21 R0782                          21
    C0181            R0814                          21 R0830                          21
    C0181            R0838                          21 R0369                          21
    C0181            R0385                          21 R0393                          21
    C0181            R0417                          21 R0425                          21
    C0181            R0441                          21 R0462                          21
    C0181            R0481                          21 R0489                          21
    C0181            R0505                          21 R0526                          21
    C0181            R0537                          21 R0558                          21
    C0181            R0574                          21 R0582                          21
    C0181            R0609                          21 R0617                          21
    C0182            OBJ                            16 R0345                          21
    C0182            R0846                          21 R0343                          21
    C0182            R0353                          21 R0361                          21
    C0182            R0377                          21 R0409                          21
    C0182            R0473                          21 R0590                          21
    C0182            R0601                          21 R0718                          21
    C0182            R0782                          21 R0814                          21
    C0182            R0830                          21 R0838                          21
    C0182            R0848                          21 R0351                          21
    C0182            R0359                          21 R0369                          21
    C0182            R0375                          21 R0385                          21
    C0182            R0393                          21 R0407                          21
    C0182            R0417                          21 R0425                          21
    C0182            R0441                          21 R0462                          21
    C0182            R0471                          21 R0481                          21
    C0182            R0489                          21 R0505                          21
    C0182            R0526                          21 R0537                          21
    C0182            R0558                          21 R0574                          21
    C0182            R0582                          21 R0592                          21
    C0182            R0599                          21 R0609                          21
    C0182            R0617                          21
    C0183            OBJ                            18 R0345                          21
    C0183            R0846                          21 R0343                          21
    C0183            R0353                          21 R0361                          21
    C0183            R0377                          21 R0409                          21
    C0183            R0473                          21 R0590                          21
    C0183            R0601                          21 R0718                          21
    C0183            R0782                          21 R0814                          21
    C0183            R0830                          21 R0838                          21
    C0183            R0848                          21 R0351                          21
    C0183            R0359                          21 R0369                          21
    C0183            R0375                          21 R0385                          21
    C0183            R0393                          21 R0407                          21
    C0183            R0417                          21 R0425                          21
    C0183            R0441                          21 R0462                          21
    C0183            R0471                          21 R0481                          21
    C0183            R0489                          21 R0505                          21
    C0183            R0526                          21 R0537                          21
    C0183            R0558                          21 R0574                          21
    C0183            R0582                          21 R0592                          21
    C0183            R0599                          21 R0609                          21
    C0183            R0617                          21
    C0184            OBJ                            16 R0345                          21
    C0184            R0846                          21 R0343                          21
    C0184            R0353                          21 R0361                          21
    C0184            R0377                          21 R0409                          21
    C0184            R0473                          21 R0590                          21
    C0184            R0601                          21 R0718                          21
    C0184            R0782                          21 R0814                          21
    C0184            R0830                          21 R0838                          21
    C0184            R0848                          21 R0351                          21
    C0184            R0359                          21 R0369                          21
    C0184            R0375                          21 R0385                          21
    C0184            R0393                          21 R0407                          21
    C0184            R0417                          21 R0425                          21
    C0184            R0441                          21 R0462                          21
    C0184            R0471                          21 R0481                          21
    C0184            R0489                          21 R0505                          21
    C0184            R0526                          21 R0537                          21
    C0184            R0558                          21 R0574                          21
    C0184            R0582                          21 R0592                          21
    C0184            R0599                          21 R0609                          21
    C0184            R0617                          21
    C0185            OBJ                            17 R0345                          21
    C0185            R0846                          21 R0343                          21
    C0185            R0353                          21 R0361                          21
    C0185            R0377                          21 R0409                          21
    C0185            R0473                          21 R0590                          21
    C0185            R0601                          21 R0718                          21
    C0185            R0782                          21 R0814                          21
    C0185            R0830                          21 R0838                          21
    C0185            R0848                          21 R0351                          21
    C0185            R0359                          21 R0369                          21
    C0185            R0375                          21 R0385                          21
    C0185            R0393                          21 R0407                          21
    C0185            R0417                          21 R0425                          21
    C0185            R0441                          21 R0462                          21
    C0185            R0471                          21 R0481                          21
    C0185            R0489                          21 R0505                          21
    C0185            R0526                          21 R0537                          21
    C0185            R0558                          21 R0574                          21
    C0185            R0582                          21 R0592                          21
    C0185            R0599                          21 R0609                          21
    C0185            R0617                          21
    C0186            OBJ                            16 R0345                          21
    C0186            R0846                          21 R0343                          21
    C0186            R0353                          21 R0361                          21
    C0186            R0377                          21 R0409                          21
    C0186            R0473                          21 R0590                          21
    C0186            R0601                          21 R0718                          21
    C0186            R0782                          21 R0814                          21
    C0186            R0830                          21 R0838                          21
    C0186            R0848                          21 R0351                          21
    C0186            R0359                          21 R0369                          21
    C0186            R0375                          21 R0385                          21
    C0186            R0393                          21 R0407                          21
    C0186            R0417                          21 R0425                          21
    C0186            R0441                          21 R0462                          21
    C0186            R0471                          21 R0481                          21
    C0186            R0489                          21 R0505                          21
    C0186            R0526                          21 R0537                          21
    C0186            R0558                          21 R0574                          21
    C0186            R0582                          21 R0592                          21
    C0186            R0599                          21 R0609                          21
    C0186            R0617                          21
    C0187            OBJ                            19 R0345                          21
    C0187            R0846                          21 R0343                          21
    C0187            R0353                          21 R0361                          21
    C0187            R0377                          21 R0409                          21
    C0187            R0473                          21 R0590                          21
    C0187            R0601                          21 R0718                          21
    C0187            R0782                          21 R0814                          21
    C0187            R0830                          21 R0838                          21
    C0187            R0848                          21 R0351                          21
    C0187            R0359                          21 R0369                          21
    C0187            R0375                          21 R0385                          21
    C0187            R0393                          21 R0407                          21
    C0187            R0417                          21 R0425                          21
    C0187            R0441                          21 R0462                          21
    C0187            R0471                          21 R0481                          21
    C0187            R0489                          21 R0505                          21
    C0187            R0526                          21 R0537                          21
    C0187            R0558                          21 R0574                          21
    C0187            R0582                          21 R0592                          21
    C0187            R0599                          21 R0609                          21
    C0187            R0617                          21
    C0188            OBJ                            17 R0345                          21
    C0188            R0846                          21 R0343                          21
    C0188            R0353                          21 R0361                          21
    C0188            R0377                          21 R0409                          21
    C0188            R0473                          21 R0590                          21
    C0188            R0601                          21 R0718                          21
    C0188            R0782                          21 R0814                          21
    C0188            R0830                          21 R0838                          21
    C0188            R0848                          21 R0351                          21
    C0188            R0359                          21 R0369                          21
    C0188            R0375                          21 R0385                          21
    C0188            R0393                          21 R0407                          21
    C0188            R0417                          21 R0425                          21
    C0188            R0441                          21 R0462                          21
    C0188            R0471                          21 R0481                          21
    C0188            R0489                          21 R0505                          21
    C0188            R0526                          21 R0537                          21
    C0188            R0558                          21 R0574                          21
    C0188            R0582                          21 R0592                          21
    C0188            R0599                          21 R0609                          21
    C0188            R0617                          21
    C0189            OBJ                            16 R0345                          21
    C0189            R0846                          21 R0343                          21
    C0189            R0353                          21 R0361                          21
    C0189            R0377                          21 R0409                          21
    C0189            R0473                          21 R0590                          21
    C0189            R0601                          21 R0718                          21
    C0189            R0782                          21 R0814                          21
    C0189            R0830                          21 R0838                          21
    C0189            R0848                          21 R0351                          21
    C0189            R0359                          21 R0369                          21
    C0189            R0375                          21 R0385                          21
    C0189            R0393                          21 R0407                          21
    C0189            R0417                          21 R0425                          21
    C0189            R0441                          21 R0462                          21
    C0189            R0471                          21 R0481                          21
    C0189            R0489                          21 R0505                          21
    C0189            R0526                          21 R0537                          21
    C0189            R0558                          21 R0574                          21
    C0189            R0582                          21 R0592                          21
    C0189            R0599                          21 R0609                          21
    C0189            R0617                          21
    C0190            OBJ                            18 R0345                          21
    C0190            R0846                          21 R0343                          21
    C0190            R0353                          21 R0361                          21
    C0190            R0377                          21 R0409                          21
    C0190            R0473                          21 R0590                          21
    C0190            R0601                          21 R0718                          21
    C0190            R0782                          21 R0814                          21
    C0190            R0830                          21 R0838                          21
    C0190            R0848                          21 R0351                          21
    C0190            R0359                          21 R0369                          21
    C0190            R0375                          21 R0385                          21
    C0190            R0393                          21 R0407                          21
    C0190            R0417                          21 R0425                          21
    C0190            R0441                          21 R0462                          21
    C0190            R0471                          21 R0481                          21
    C0190            R0489                          21 R0505                          21
    C0190            R0526                          21 R0537                          21
    C0190            R0558                          21 R0574                          21
    C0190            R0582                          21 R0592                          21
    C0190            R0599                          21 R0609                          21
    C0190            R0617                          21
    MARK0001  'MARKER'                 'INTEND'
RHS
    RHS1              R0345                           2
    RHS1              R0846                           2
    RHS1              R0343                           2
    RHS1              R0353                           2
    RHS1              R0361                           2
    RHS1              R0377                           2
    RHS1              R0409                           2
    RHS1              R0473                           2
    RHS1              R0590                           2
    RHS1              R0601                           2
    RHS1              R0718                           2
    RHS1              R0782                           2
    RHS1              R0814                           2
    RHS1              R0830                           2
    RHS1              R0838                           2
    RHS1              R0848                           2
    RHS1              R0351                           2
    RHS1              R0359                           2
    RHS1              R0369                           2
    RHS1              R0375                           2
    RHS1              R0385                           2
    RHS1              R0393                           2
    RHS1              R0407                           2
    RHS1              R0417                           2
    RHS1              R0425                           2
    RHS1              R0441                           2
    RHS1              R0462                           2
    RHS1              R0471                           2
    RHS1              R0481                           2
    RHS1              R0489                           2
    RHS1              R0505                           2
    RHS1              R0526                           2
    RHS1              R0537                           2
    RHS1              R0558                           2
    RHS1              R0574                           2
    RHS1              R0582                           2
    RHS1              R0592                           2
    RHS1              R0599                           2
    RHS1              R0609                           2
    RHS1              R0617                           2
BOUNDS
 BV BND1              C0002
 BV BND1              C0022
 BV BND1              C0042
 BV BND1              C0062
 BV BND1              C0082
 BV BND1              C0102
 BV BND1              C0122
 BV BND1              C0142
 BV BND1              C0181
 BV BND1              C0182
 BV BND1              C0183
 BV BND1              C0184
 BV BND1              C0185
 BV BND1              C0186
 BV BND1              C0187
 BV BND1              C0188
 BV BND1              C0189
 BV BND1              C0190
ENDATA
