NAME          ran14x18-disj-8_ds
OBJSENSE
 MIN
ROWS
 N  OBJ
 G  c1564
 G  c1722
 G  c1731
 G  c1764
 G  c1869
 G  c1785
 G  c1814
 G  c1866
 G  c1886
 G  c1895
 G  c1908
 G  c1797
 G  c1861
 G  c1037
 G  c1179
 G  c1186
 G  c1432
 G  c1449
 G  c1465
 G  c1468
 G  c1691
 G  c1771
 G  c1853
 G  c1862
 G  c1896
 G  c1119
 G  c1902
 G  c40
 G  c71
 G  c102
 G  c110
 G  c1872
 G  c93
 G  c105
 G  c108
 G  c1360
 G  c1629
 G  c1768
 G  c1883
 G  c20
COLUMNS
    MARK0000  'MARKER'                 'INTORG'
    X240             OBJ                           234 c1564                        2518
    X240             c1722                         360 c1731                          66
    X240             c1764                        1546 c1869                      282223
    X240             c1785                        9172 c1814                      157627
    X240             c1866                       18807 c1886                       21092
    X240             c1895                 1.68978e+06 c1908                       81584
    X240             c1037                       16238 c1179                  1.1371e+06
    X240             c1186                  2.0164e+06 c1432                       14611
    X240             c1449                      814157 c1465                       11115
    X240             c1468                      563401 c1771                      907130
    X240             c1853                      880342 c1862                      695184
    X240             c1896                       12478 c40                             1
    X240             c71                             1 c102                            9
    X240             c110                            9 c93                             9
    X242             OBJ                            86 c1564                       72175
    X242             c1722                        2993 c1731                      141908
    X242             c1764                       68547 c1869                       88599
    X242             c1785                        5724 c1814                      157234
    X242             c1866                       16606 c1886                       19234
    X242             c1895                 1.44651e+06 c1797                      457663
    X242             c1861                      400735 c1037                       14211
    X242             c1432                       14481 c1465                       11115
    X242             c1691                      127433 c1896                       12295
    X242             c1902                          30 c105                           10
    X242             c1360                         419 c1629                         490
    X242             c1768                         170 c1883                         511
    X26              OBJ                           248 c1564                       74998
    X26              c1722                        3050 c1731                      142136
    X26              c1764                       76476 c1869                 1.45678e+06
    X26              c1785                 1.44519e+06 c1814                 1.14901e+06
    X26              c1866                  1.1505e+06 c1886                 1.98415e+06
    X26              c1895                      533170 c1797                      457663
    X26              c1861                      400735 c1037                 1.90108e+06
    X26              c1432                 1.81897e+06 c1465                 1.30791e+06
    X26              c1691                      127433 c1896                 1.57025e+06
    X26              c1119                      778167 c1902                          30
    X26              c1872                          33 c105                           10
    X26              c1360                         419 c1629                         490
    X26              c1768                         170 c1883                         511
    X69              OBJ                           186 c1564                      114201
    X69              c1722                        4009 c1731                       47422
    X69              c1764                       58835 c1869                  1.5371e+06
    X69              c1785                 1.50215e+06 c1814                 1.09262e+06
    X69              c1866                 1.59274e+06 c1886                      569680
    X69              c1895                      729629 c1797                       31548
    X69              c1861                       67382 c1037                      624107
    X69              c1432                      671961 c1465                 1.73597e+06
    X69              c1691                      127433 c1896                 1.35142e+06
    X69              c1119                 1.43989e+06 c1902                          30
    X70              OBJ                           262 c1564                       29152
    X70              c1722                        3441 c1731                       47149
    X70              c1764                       21375 c1869                      804895
    X70              c1785                      990412 c1814                      733156
    X70              c1866                      903667 c1886                      567261
    X70              c1895                      405953 c1797                       31548
    X70              c1861                       67382 c1037                      577767
    X70              c1432                      958893 c1465                      889409
    X70              c1691                      127433 c1896                      827779
    X70              c1119                      728027 c1902                          30
    X70              c1872                          33
    X168             OBJ                           201 c1564                        4020
    X168             c1722                        4168 c1731                         980
    X168             c1764                        2399 c1869                      214061
    X168             c1785                        3491 c1814                      243898
    X168             c1866                         339 c1886                         180
    X168             c1895                      259465 c1908                 1.62465e+06
    X168             c1179                 2.14915e+06 c1186                 2.32304e+06
    X168             c1449                 2.08515e+06 c1468                 1.03784e+06
    X168             c1691                      649906 c1771                 1.45797e+06
    X168             c1853                 2.15026e+06 c1862                 1.39037e+06
    X168             c40                             1 c71                             2
    X168             c102                            9 c110                            9
    X168             c93                             9 c108                            1
    X168             c20                             1
    X24              OBJ                           162 c1564                        4422
    X24              c1722                         150 c1731                         238
    X24              c1764                        9454 c1869                  1.4313e+06
    X24              c1785                 1.41677e+06 c1814                  1.1486e+06
    X24              c1866                 1.15044e+06 c1886                 1.98331e+06
    X24              c1895                      533066 c1908                       64777
    X24              c1037                 1.90108e+06 c1179                  1.1371e+06
    X24              c1186                      306642 c1432                 1.81897e+06
    X24              c1449                      225835 c1465                 1.30721e+06
    X24              c1468                      326179 c1771                      739498
    X24              c1853                      149569 c1862                      695184
    X24              c1896                 1.57025e+06 c1119                      778167
    X24              c40                             1 c71                             1
    X24              c102                            9 c1872                          33
    X141             OBJ                           208 c1564                       87171
    X141             c1722                         665 c1731                         389
    X141             c1764                       44381 c1869                 1.52219e+06
    X141             c1785                 1.50215e+06 c1814                 1.09262e+06
    X141             c1866                 1.59274e+06 c1886                      569680
    X141             c1895                      729629 c1908                       75632
    X141             c1037                      624107 c1179                      389231
    X141             c1186                      626750 c1432                      671961
    X141             c1449                      536073 c1465                 1.73597e+06
    X141             c1468                      360068 c1771                      338732
    X141             c1853                      372934 c1862                      369124
    X141             c1896                 1.35142e+06 c1119                 1.43989e+06
    X142             OBJ                           205 c1564                        2122
    X142             c1722                         152 c1731                         115
    X142             c1764                        6921 c1869                      790424
    X142             c1785                      990412 c1814                      733156
    X142             c1866                      903667 c1886                      567261
    X142             c1895                      405953 c1908                       75632
    X142             c1037                      577767 c1179                      389231
    X142             c1186                      626750 c1432                      958893
    X142             c1449                      536073 c1465                      889409
    X142             c1468                      360068 c1771                      338732
    X142             c1853                      372934 c1862                      369124
    X142             c1896                      827779 c1119                      728027
    X142             c1872                          33
    X176             OBJ                           239 c1564                      128711
    X176             c1722                      834097 c1731                       22184
    X176             c1764                      147363 c1869                       64224
    X176             c1785                          93 c1814                      946122
    X176             c1866                         339 c1886                         180
    X176             c1895                      259465 c1908                  2.5671e+06
    X176             c1797                       13948 c1861                       29791
    X176             c1691                 2.11671e+06 c108                            1
    X176             c20                             1
    X42              OBJ                           154 c1564                       60786
    X42              c1722                        1102 c1731                       88061
    X42              c1764                       27925 c1869                      182319
    X42              c1785                        3399 c1908                      148812
    X42              c1797                       65002 c1861                      138836
    X42              c1179                 2.92761e+06 c1186                 2.32304e+06
    X42              c1449                 2.08515e+06 c1468                 2.27732e+06
    X42              c1771                 2.47155e+06 c1853                 2.24068e+06
    X42              c1862                 1.08858e+06 c40                             1
    X42              c71                             1 c102                            9
    X42              c110                            9 c93                             9
    X60              OBJ                           243 c1564                       29549
    X60              c1722                        3523 c1731                       47049
    X60              c1764                       15998 c1869                      159387
    X60              c1785                        3399 c1908                       58825
    X60              c1797                       31548 c1861                       67382
    X60              c1179                  1.1371e+06 c1186                      306642
    X60              c1449                      225835 c1468                      326179
    X60              c1691                      127433 c1771                      739498
    X60              c1853                      149569 c1862                      695184
    X60              c1902                          30 c40                             1
    X60              c71                             1
    X134             OBJ                           217 c1564                       72158
    X134             c1722                        3085 c1731                      141911
    X134             c1764                       68516 c1869                        3380
    X134             c1908                       75632 c1797                      457663
    X134             c1861                      400735 c1179                      389231
    X134             c1186                      626750 c1449                      536073
    X134             c1468                      360068 c1691                      127433
    X134             c1771                      338732 c1853                      372934
    X134             c1862                      369124 c1902                          30
    X134             c105                           10 c1360                         419
    X134             c1629                         490 c1768                         170
    X134             c1883                         511
    X78              OBJ                           172 c1564                        3687
    X78              c1722                         792 c1731                         147
    X78              c1764                        1694 c1869                      182341
    X78              c1785                        3399 c1908                      128854
    X78              c1179                 2.92761e+06 c1186                 3.05132e+06
    X78              c1449                 2.62151e+06 c1468                 1.60124e+06
    X78              c1771                 2.62438e+06 c1853                  2.5824e+06
    X78              c1862                 2.31504e+06 c40                             1
    X78              c71                             1 c102                            9
    X78              c110                            9 c93                             9
    X170             OBJ                           106 c1564                       73646
    X170             c1722                        8127 c1731                      340399
    X170             c1764                      170254 c1869                       35117
    X170             c1785                          93 c1814                      243898
    X170             c1866                         339 c1886                         180
    X170             c1895                      259465 c1908                 1.02383e+06
    X170             c1797                 1.21808e+06 c1861                      908074
    X170             c1691                      777338 c1902                          30
    X170             c105                           10 c108                            1
    X170             c1360                         419 c1629                         490
    X170             c1768                         170 c1883                         511
    X170             c20                             1
    X6               OBJ                           252 c1564                      605310
    X6               c1722                        4639 c1731                       11926
    X6               c1764                      594942 c1869                      182318
    X6               c1785                        3399 c1908                       81584
    X6               c1797                       13496 c1861                       28826
    X6               c1179                  1.1371e+06 c1186                  2.0164e+06
    X6               c1449                      814157 c1468                      563401
    X6               c1771                      907130 c1853                      880342
    X6               c1862                      695184 c40                             1
    X6               c71                             1 c102                            9
    X6               c110                            9 c93                             9
    X16              OBJ                           208 c1564                      606543
    X16              c1722                        4370 c1731                       11974
    X16              c1764                      599622 c1869                  1.1069e+06
    X16              c1785                 1.64995e+06 c1814                      833243
    X16              c1866                      914564 c1886                      567261
    X16              c1895                      405953 c1797                       13496
    X16              c1861                       28826 c1037                      577767
    X16              c1432                      958893 c1465                      889409
    X16              c1896                      827779 c1119                      728027
    X16              c1872                          33
    X177             OBJ                           222 c1564                       90755
    X177             c1722                        9559 c1731                        2539
    X177             c1764                       55662 c1869                 1.57364e+06
    X177             c1785                 1.50224e+06 c1814                 1.76865e+06
    X177             c1866                 1.59308e+06 c1886                      569859
    X177             c1895                      989094 c1908                 1.66487e+06
    X177             c1037                      624107 c1432                      671961
    X177             c1465                 1.73597e+06 c1691                 1.55255e+06
    X177             c1896                 1.35142e+06 c1119                 1.43989e+06
    X177             c108                            1 c20                             1
    MARK0001  'MARKER'                 'INTEND'
RHS
    RHS1              c1564                           0
    RHS1              c1722                           0
    RHS1              c1731                           0
    RHS1              c1764                           0
    RHS1              c1869                           0
    RHS1              c1785                           0
    RHS1              c1814                           0
    RHS1              c1866                           0
    RHS1              c1886                           0
    RHS1              c1895                           0
    RHS1              c1908                           0
    RHS1              c1797                           0
    RHS1              c1861                           0
    RHS1              c1037                           0
    RHS1              c1179                           0
    RHS1              c1186                           0
    RHS1              c1432                           0
    RHS1              c1449                           0
    RHS1              c1465                           0
    RHS1              c1468                           0
    RHS1              c1691                           0
    RHS1              c1771                           0
    RHS1              c1853                           0
    RHS1              c1862                           0
    RHS1              c1896                           0
    RHS1              c1119                           0
    RHS1              c1902                           0
    RHS1              c40                             0
    RHS1              c71                             0
    RHS1              c102                            0
    RHS1              c110                            0
    RHS1              c1872                           0
    RHS1              c93                             0
    RHS1              c105                            0
    RHS1              c108                            0
    RHS1              c1360                           0
    RHS1              c1629                           0
    RHS1              c1768                           0
    RHS1              c1883                           0
    RHS1              c20                             0
BOUNDS
 BV BND1              X240
 BV BND1              X242
 BV BND1              X26
 BV BND1              X69
 BV BND1              X70
 BV BND1              X168
 BV BND1              X24
 BV BND1              X141
 BV BND1              X142
 BV BND1              X176
 BV BND1              X42
 BV BND1              X60
 BV BND1              X134
 BV BND1              X78
 BV BND1              X170
 BV BND1              X6
 BV BND1              X16
 BV BND1              X177
ENDATA
