NAME          bppc4-08_ds
OBJSENSE
 MIN
ROWS
 N  OBJ
 E  c1
 L  c48
 L  c49
 L  c50
 L  c51
 L  c52
 L  c53
 L  c54
 L  c55
 L  c56
 L  c57
 L  c58
 L  c59
 L  c60
 L  c61
 L  c62
 L  c63
 L  c47
 L  c64
 L  c46
 L  c65
 L  c45
 L  c66
 L  c44
 L  c67
 L  c43
 L  c68
 L  c42
 L  c69
 L  c41
 L  c70
 L  c40
 L  c71
 L  c39
 L  c72
 L  c38
 L  c73
 L  c37
 L  c74
 L  c36
COLUMNS
    MARK0000  'MARKER'                 'INTORG'
    X0.16            OBJ                             0 c1                              1
    X0.16            c48                            23 c49                            23
    X0.16            c50                            23 c51                            23
    X0.16            c52                            23 c53                            23
    X0.16            c54                            23 c55                            23
    X0.16            c56                            23 c57                            23
    X0.16            c58                            23 c59                            23
    X0.16            c60                            23 c61                            23
    X0.16            c62                            23 c63                            23
    X0.16            c47                            23 c46                            23
    X0.16            c45                            23 c44                            23
    X0.16            c43                            23 c42                            23
    X0.16            c41                            23 c40                            23
    X0.16            c39                            23 c38                            23
    X0.16            c37                            23 c36                            23
    X0.17            OBJ                             0 c1                              1
    X0.17            c48                            23 c49                            23
    X0.17            c50                            23 c51                            23
    X0.17            c52                            23 c53                            23
    X0.17            c54                            23 c55                            23
    X0.17            c56                            23 c57                            23
    X0.17            c58                            23 c59                            23
    X0.17            c60                            23 c61                            23
    X0.17            c62                            23 c63                            23
    X0.17            c47                            23 c64                            23
    X0.17            c46                            23 c45                            23
    X0.17            c44                            23 c43                            23
    X0.17            c42                            23 c41                            23
    X0.17            c40                            23 c39                            23
    X0.17            c38                            23 c37                            23
    X0.17            c36                            23
    X0.18            OBJ                             0 c1                              1
    X0.18            c48                            23 c49                            23
    X0.18            c50                            23 c51                            23
    X0.18            c52                            23 c53                            23
    X0.18            c54                            23 c55                            23
    X0.18            c56                            23 c57                            23
    X0.18            c58                            23 c59                            23
    X0.18            c60                            23 c61                            23
    X0.18            c62                            23 c63                            23
    X0.18            c47                            23 c64                            23
    X0.18            c46                            23 c65                            23
    X0.18            c45                            23 c44                            23
    X0.18            c43                            23 c42                            23
    X0.18            c41                            23 c40                            23
    X0.18            c39                            23 c38                            23
    X0.18            c37                            23 c36                            23
    X0.19            OBJ                             0 c1                              1
    X0.19            c48                            23 c49                            23
    X0.19            c50                            23 c51                            23
    X0.19            c52                            23 c53                            23
    X0.19            c54                            23 c55                            23
    X0.19            c56                            23 c57                            23
    X0.19            c58                            23 c59                            23
    X0.19            c60                            23 c61                            23
    X0.19            c62                            23 c63                            23
    X0.19            c47                            23 c64                            23
    X0.19            c46                            23 c65                            23
    X0.19            c45                            23 c66                            23
    X0.19            c44                            23 c43                            23
    X0.19            c42                            23 c41                            23
    X0.19            c40                            23 c39                            23
    X0.19            c38                            23 c37                            23
    X0.19            c36                            23
    X0.20            OBJ                             0 c1                              1
    X0.20            c48                            23 c49                            23
    X0.20            c50                            23 c51                            23
    X0.20            c52                            23 c53                            23
    X0.20            c54                            23 c55                            23
    X0.20            c56                            23 c57                            23
    X0.20            c58                            23 c59                            23
    X0.20            c60                            23 c61                            23
    X0.20            c62                            23 c63                            23
    X0.20            c47                            23 c64                            23
    X0.20            c46                            23 c65                            23
    X0.20            c45                            23 c66                            23
    X0.20            c44                            23 c67                            23
    X0.20            c43                            23 c42                            23
    X0.20            c41                            23 c40                            23
    X0.20            c39                            23 c38                            23
    X0.20            c37                            23 c36                            23
    X0.21            OBJ                             0 c1                              1
    X0.21            c48                            23 c49                            23
    X0.21            c50                            23 c51                            23
    X0.21            c52                            23 c53                            23
    X0.21            c54                            23 c55                            23
    X0.21            c56                            23 c57                            23
    X0.21            c58                            23 c59                            23
    X0.21            c60                            23 c61                            23
    X0.21            c62                            23 c63                            23
    X0.21            c47                            23 c64                            23
    X0.21            c46                            23 c65                            23
    X0.21            c45                            23 c66                            23
    X0.21            c44                            23 c67                            23
    X0.21            c43                            23 c68                            23
    X0.21            c42                            23 c41                            23
    X0.21            c40                            23 c39                            23
    X0.21            c38                            23 c37                            23
    X0.21            c36                            23
    X0.22            OBJ                             0 c1                              1
    X0.22            c48                            23 c49                            23
    X0.22            c50                            23 c51                            23
    X0.22            c52                            23 c53                            23
    X0.22            c54                            23 c55                            23
    X0.22            c56                            23 c57                            23
    X0.22            c58                            23 c59                            23
    X0.22            c60                            23 c61                            23
    X0.22            c62                            23 c63                            23
    X0.22            c47                            23 c64                            23
    X0.22            c46                            23 c65                            23
    X0.22            c45                            23 c66                            23
    X0.22            c44                            23 c67                            23
    X0.22            c43                            23 c68                            23
    X0.22            c42                            23 c69                            23
    X0.22            c41                            23 c40                            23
    X0.22            c39                            23 c38                            23
    X0.22            c37                            23
    X0.23            OBJ                             0 c1                              1
    X0.23            c48                            23 c49                            23
    X0.23            c50                            23 c51                            23
    X0.23            c52                            23 c53                            23
    X0.23            c54                            23 c55                            23
    X0.23            c56                            23 c57                            23
    X0.23            c58                            23 c59                            23
    X0.23            c60                            23 c61                            23
    X0.23            c62                            23 c63                            23
    X0.23            c47                            23 c64                            23
    X0.23            c46                            23 c65                            23
    X0.23            c45                            23 c66                            23
    X0.23            c44                            23 c67                            23
    X0.23            c43                            23 c68                            23
    X0.23            c42                            23 c69                            23
    X0.23            c41                            23 c70                            23
    X0.23            c40                            23 c39                            23
    X0.23            c38                            23
    X0.24            OBJ                             0 c1                              1
    X0.24            c48                            23 c49                            23
    X0.24            c50                            23 c51                            23
    X0.24            c52                            23 c53                            23
    X0.24            c54                            23 c55                            23
    X0.24            c56                            23 c57                            23
    X0.24            c58                            23 c59                            23
    X0.24            c60                            23 c61                            23
    X0.24            c62                            23 c63                            23
    X0.24            c47                            23 c64                            23
    X0.24            c46                            23 c65                            23
    X0.24            c45                            23 c66                            23
    X0.24            c44                            23 c67                            23
    X0.24            c43                            23 c68                            23
    X0.24            c42                            23 c69                            23
    X0.24            c41                            23 c70                            23
    X0.24            c40                            23 c71                            23
    X0.24            c39                            23
    X0.25            OBJ                             0 c1                              1
    X0.25            c48                            23 c49                            23
    X0.25            c50                            23 c51                            23
    X0.25            c52                            23 c53                            23
    X0.25            c54                            23 c55                            23
    X0.25            c56                            23 c57                            23
    X0.25            c58                            23 c59                            23
    X0.25            c60                            23 c61                            23
    X0.25            c62                            23 c63                            23
    X0.25            c47                            23 c64                            23
    X0.25            c46                            23 c65                            23
    X0.25            c45                            23 c66                            23
    X0.25            c44                            23 c67                            23
    X0.25            c43                            23 c68                            23
    X0.25            c42                            23 c69                            23
    X0.25            c41                            23 c70                            23
    X0.25            c40                            23 c71                            23
    X0.25            c72                            23
    X0.26            OBJ                             0 c1                              1
    X0.26            c48                            23 c49                            23
    X0.26            c50                            23 c51                            23
    X0.26            c52                            23 c53                            23
    X0.26            c54                            23 c55                            23
    X0.26            c56                            23 c57                            23
    X0.26            c58                            23 c59                            23
    X0.26            c60                            23 c61                            23
    X0.26            c62                            23 c63                            23
    X0.26            c47                            23 c64                            23
    X0.26            c46                            23 c65                            23
    X0.26            c45                            23 c66                            23
    X0.26            c44                            23 c67                            23
    X0.26            c43                            23 c68                            23
    X0.26            c42                            23 c69                            23
    X0.26            c41                            23 c70                            23
    X0.26            c71                            23 c72                            23
    X0.26            c73                            23
    X0.27            OBJ                             0 c1                              1
    X0.27            c48                            23 c49                            23
    X0.27            c50                            23 c51                            23
    X0.27            c52                            23 c53                            23
    X0.27            c54                            23 c55                            23
    X0.27            c56                            23 c57                            23
    X0.27            c58                            23 c59                            23
    X0.27            c60                            23 c61                            23
    X0.27            c62                            23 c63                            23
    X0.27            c47                            23 c64                            23
    X0.27            c46                            23 c65                            23
    X0.27            c45                            23 c66                            23
    X0.27            c44                            23 c67                            23
    X0.27            c43                            23 c68                            23
    X0.27            c42                            23 c69                            23
    X0.27            c70                            23 c71                            23
    X0.27            c72                            23 c73                            23
    X0.27            c74                            23
    X0.28            OBJ                             0 c1                              1
    X0.28            c48                            23 c49                            23
    X0.28            c50                            23 c51                            23
    X0.28            c52                            23 c53                            23
    X0.28            c54                            23 c55                            23
    X0.28            c56                            23 c57                            23
    X0.28            c58                            23 c59                            23
    X0.28            c60                            23 c61                            23
    X0.28            c62                            23 c63                            23
    X0.28            c47                            23 c64                            23
    X0.28            c46                            23 c65                            23
    X0.28            c45                            23 c66                            23
    X0.28            c44                            23 c67                            23
    X0.28            c43                            23 c68                            23
    X0.28            c69                            23 c70                            23
    X0.28            c71                            23 c72                            23
    X0.28            c73                            23 c74                            23
    X0.29            OBJ                             0 c1                              1
    X0.29            c48                            23 c49                            23
    X0.29            c50                            23 c51                            23
    X0.29            c52                            23 c53                            23
    X0.29            c54                            23 c55                            23
    X0.29            c56                            23 c57                            23
    X0.29            c58                            23 c59                            23
    X0.29            c60                            23 c61                            23
    X0.29            c62                            23 c63                            23
    X0.29            c47                            23 c64                            23
    X0.29            c46                            23 c65                            23
    X0.29            c45                            23 c66                            23
    X0.29            c44                            23 c67                            23
    X0.29            c68                            23 c69                            23
    X0.29            c70                            23 c71                            23
    X0.29            c72                            23 c73                            23
    X0.29            c74                            23
    X0.30            OBJ                             0 c1                              1
    X0.30            c48                            23 c49                            23
    X0.30            c50                            23 c51                            23
    X0.30            c52                            23 c53                            23
    X0.30            c54                            23 c55                            23
    X0.30            c56                            23 c57                            23
    X0.30            c58                            23 c59                            23
    X0.30            c60                            23 c61                            23
    X0.30            c62                            23 c63                            23
    X0.30            c47                            23 c64                            23
    X0.30            c46                            23 c65                            23
    X0.30            c45                            23 c66                            23
    X0.30            c67                            23 c68                            23
    X0.30            c69                            23 c70                            23
    X0.30            c71                            23 c72                            23
    X0.30            c73                            23 c74                            23
    X0.31            OBJ                             0 c1                              1
    X0.31            c48                            23 c49                            23
    X0.31            c50                            23 c51                            23
    X0.31            c52                            23 c53                            23
    X0.31            c54                            23 c55                            23
    X0.31            c56                            23 c57                            23
    X0.31            c58                            23 c59                            23
    X0.31            c60                            23 c61                            23
    X0.31            c62                            23 c63                            23
    X0.31            c47                            23 c64                            23
    X0.31            c46                            23 c65                            23
    X0.31            c66                            23 c67                            23
    X0.31            c68                            23 c69                            23
    X0.31            c70                            23 c71                            23
    X0.31            c72                            23 c73                            23
    X0.31            c74                            23
    X0.32            OBJ                             0 c1                              1
    X0.32            c48                            23 c49                            23
    X0.32            c50                            23 c51                            23
    X0.32            c52                            23 c53                            23
    X0.32            c54                            23 c55                            23
    X0.32            c56                            23 c57                            23
    X0.32            c58                            23 c59                            23
    X0.32            c60                            23 c61                            23
    X0.32            c62                            23 c63                            23
    X0.32            c47                            23 c64                            23
    X0.32            c65                            23 c66                            23
    X0.32            c67                            23 c68                            23
    X0.32            c69                            23 c70                            23
    X0.32            c71                            23 c72                            23
    X0.32            c73                            23 c74                            23
    X0.33            OBJ                             0 c1                              1
    X0.33            c48                            23 c49                            23
    X0.33            c50                            23 c51                            23
    X0.33            c52                            23 c53                            23
    X0.33            c54                            23 c55                            23
    X0.33            c56                            23 c57                            23
    X0.33            c58                            23 c59                            23
    X0.33            c60                            23 c61                            23
    X0.33            c62                            23 c63                            23
    X0.33            c64                            23 c65                            23
    X0.33            c66                            23 c67                            23
    X0.33            c68                            23 c69                            23
    X0.33            c70                            23 c71                            23
    X0.33            c72                            23 c73                            23
    X0.33            c74                            23
    MARK0001  'MARKER'                 'INTEND'
RHS
    RHS1              c1                              0
    RHS1              c48                             0
    RHS1              c49                             0
    RHS1              c50                             0
    RHS1              c51                             0
    RHS1              c52                             0
    RHS1              c53                             0
    RHS1              c54                             0
    RHS1              c55                             0
    RHS1              c56                             0
    RHS1              c57                             0
    RHS1              c58                             0
    RHS1              c59                             0
    RHS1              c60                             0
    RHS1              c61                             0
    RHS1              c62                             0
    RHS1              c63                             0
    RHS1              c47                             0
    RHS1              c64                             0
    RHS1              c46                             0
    RHS1              c65                             0
    RHS1              c45                             0
    RHS1              c66                             0
    RHS1              c44                             0
    RHS1              c67                             0
    RHS1              c43                             0
    RHS1              c68                             0
    RHS1              c42                             0
    RHS1              c69                             0
    RHS1              c41                             0
    RHS1              c70                             0
    RHS1              c40                             0
    RHS1              c71                             0
    RHS1              c39                             0
    RHS1              c72                             0
    RHS1              c38                             0
    RHS1              c73                             0
    RHS1              c37                             0
    RHS1              c74                             0
    RHS1              c36                             0
BOUNDS
 BV BND1              X0.16
 BV BND1              X0.17
 BV BND1              X0.18
 BV BND1              X0.19
 BV BND1              X0.20
 BV BND1              X0.21
 BV BND1              X0.22
 BV BND1              X0.23
 BV BND1              X0.24
 BV BND1              X0.25
 BV BND1              X0.26
 BV BND1              X0.27
 BV BND1              X0.28
 BV BND1              X0.29
 BV BND1              X0.30
 BV BND1              X0.31
 BV BND1              X0.32
 BV BND1              X0.33
ENDATA
