NAME          assign1-5-8_ds
OBJSENSE
 MIN
ROWS
 N  OBJ
 E  R0131
 E  R0132
 E  R0133
 G  R0001
 G  R0002
 G  R0003
 G  R0006
 G  R0007
 G  R0008
 G  R0011
 G  R0012
 G  R0013
 G  R0016
 G  R0017
 G  R0018
 G  R0021
 G  R0022
 G  R0023
 G  R0026
 G  R0027
 G  R0028
 G  R0031
 G  R0032
 G  R0033
 G  R0036
 G  R0037
 G  R0038
 G  R0041
 G  R0042
 G  R0043
 G  R0046
 G  R0047
 G  R0048
 G  R0051
 G  R0052
 G  R0053
 G  R0056
 G  R0057
 G  R0058
 G  R0061
COLUMNS
    MARK0000  'MARKER'                 'INTORG'
    C0027            OBJ                             0 R0131                           1
    C0027            R0001                          -5 R0006                          -2
    C0027            R0011                          -2 R0016                          -3
    C0027            R0021                          -3 R0026                          -3
    C0027            R0031                          -3 R0036                          -2
    C0027            R0041                          -1 R0046                          -2
    C0027            R0051                          -2 R0056                          -3
    C0027            R0061                          -3
    C0028            OBJ                             0 R0131                           1
    C0028            R0002                          -5 R0007                          -2
    C0028            R0012                          -2 R0017                          -3
    C0028            R0022                          -3 R0027                          -3
    C0028            R0032                          -3 R0037                          -2
    C0028            R0042                          -1 R0047                          -2
    C0028            R0052                          -2 R0057                          -3
    C0029            OBJ                             0 R0131                           1
    C0029            R0003                          -5 R0008                          -2
    C0029            R0013                          -2 R0018                          -3
    C0029            R0023                          -3 R0028                          -3
    C0029            R0033                          -3 R0038                          -2
    C0029            R0043                          -1 R0048                          -2
    C0029            R0053                          -2 R0058                          -3
    C0030            OBJ                             0 R0131                           1
    C0031            OBJ                             0 R0131                           1
    C0032            OBJ                             0 R0132                           1
    C0032            R0001                          -2 R0006                          -5
    C0032            R0011                          -2 R0016                          -1
    C0032            R0021                          -1 R0026                          -3
    C0032            R0031                          -2 R0036                          -4
    C0032            R0041                          -3 R0046                          -2
    C0032            R0051                          -3 R0056                          -1
    C0032            R0061                          -3
    C0033            OBJ                             0 R0132                           1
    C0033            R0002                          -2 R0007                          -5
    C0033            R0012                          -2 R0017                          -1
    C0033            R0022                          -1 R0027                          -3
    C0033            R0032                          -2 R0037                          -4
    C0033            R0042                          -3 R0047                          -2
    C0033            R0052                          -3 R0057                          -1
    C0034            OBJ                             0 R0132                           1
    C0034            R0003                          -2 R0008                          -5
    C0034            R0013                          -2 R0018                          -1
    C0034            R0023                          -1 R0028                          -3
    C0034            R0033                          -2 R0038                          -4
    C0034            R0043                          -3 R0048                          -2
    C0034            R0053                          -3 R0058                          -1
    C0035            OBJ                             0 R0132                           1
    C0036            OBJ                             0 R0132                           1
    C0037            OBJ                             0 R0133                           1
    C0037            R0001                          -2 R0006                          -2
    C0037            R0011                          -5 R0016                          -3
    C0037            R0021                          -2 R0026                          -1
    C0037            R0031                          -2 R0036                          -2
    C0037            R0041                          -1 R0046                          -3
    C0037            R0051                          -1 R0056                          -3
    C0037            R0061                          -3
    C0038            OBJ                             0 R0133                           1
    C0038            R0002                          -2 R0007                          -2
    C0038            R0012                          -5 R0017                          -3
    C0038            R0022                          -2 R0027                          -1
    C0038            R0032                          -2 R0037                          -2
    C0038            R0042                          -1 R0047                          -3
    C0038            R0052                          -1 R0057                          -3
    C0039            OBJ                             0 R0133                           1
    C0039            R0003                          -2 R0008                          -2
    C0039            R0013                          -5 R0018                          -3
    C0039            R0023                          -2 R0028                          -1
    C0039            R0033                          -2 R0038                          -2
    C0039            R0043                          -1 R0048                          -3
    C0039            R0053                          -1 R0058                          -3
    C0040            OBJ                             0 R0133                           1
    C0041            OBJ                             0 R0133                           1
    C0052            OBJ                             0 R0001                          -3
    C0052            R0006                          -3 R0011                          -1
    C0052            R0016                          -2 R0021                          -2
    C0052            R0026                          -5 R0031                          -2
    C0052            R0036                          -3 R0041                          -2
    C0052            R0046                          -1 R0051                          -3
    C0052            R0056                          -2 R0061                          -2
    C0053            OBJ                             0 R0002                          -3
    C0053            R0007                          -3 R0012                          -1
    C0053            R0017                          -2 R0022                          -2
    C0053            R0027                          -5 R0032                          -2
    C0053            R0037                          -3 R0042                          -2
    C0053            R0047                          -1 R0052                          -3
    C0053            R0057                          -2
    C0054            OBJ                             0 R0003                          -3
    C0054            R0008                          -3 R0013                          -1
    C0054            R0018                          -2 R0023                          -2
    C0054            R0028                          -5 R0033                          -2
    C0054            R0038                          -3 R0043                          -2
    C0054            R0048                          -1 R0053                          -3
    C0054            R0058                          -2
    MARK0001  'MARKER'                 'INTEND'
RHS
    RHS1              R0131                           1
    RHS1              R0132                           1
    RHS1              R0133                           1
    RHS1              R0001                          -5
    RHS1              R0002                          -5
    RHS1              R0003                          -5
    RHS1              R0006                          -5
    RHS1              R0007                          -5
    RHS1              R0008                          -5
    RHS1              R0011                          -5
    RHS1              R0012                          -5
    RHS1              R0013                          -5
    RHS1              R0016                          -5
    RHS1              R0017                          -5
    RHS1              R0018                          -5
    RHS1              R0021                          -5
    RHS1              R0022                          -5
    RHS1              R0023                          -5
    RHS1              R0026                          -5
    RHS1              R0027                          -5
    RHS1              R0028                          -5
    RHS1              R0031                          -5
    RHS1              R0032                          -5
    RHS1              R0033                          -5
    RHS1              R0036                          -5
    RHS1              R0037                          -5
    RHS1              R0038                          -5
    RHS1              R0041                          -5
    RHS1              R0042                          -5
    RHS1              R0043                          -5
    RHS1              R0046                          -5
    RHS1              R0047                          -5
    RHS1              R0048                          -5
    RHS1              R0051                          -5
    RHS1              R0052                          -5
    RHS1              R0053                          -5
    RHS1              R0056                          -5
    RHS1              R0057                          -5
    RHS1              R0058                          -5
    RHS1              R0061                          -5
BOUNDS
 BV BND1              C0027
 BV BND1              C0028
 BV BND1              C0029
 BV BND1              C0030
 BV BND1              C0031
 BV BND1              C0032
 BV BND1              C0033
 BV BND1              C0034
 BV BND1              C0035
 BV BND1              C0036
 BV BND1              C0037
 BV BND1              C0038
 BV BND1              C0039
 BV BND1              C0040
 BV BND1              C0041
 BV BND1              C0052
 BV BND1              C0053
 BV BND1              C0054
ENDATA
