NAME          germanrr_ds
OBJSENSE
 MIN
ROWS
 N  OBJ
 E  R0000001
 E  R0000230
 E  R0000160
 E  R0000159
 E  R0000123
 E  R0000124
 E  R0000125
 E  R0000127
 E  R0000154
 E  R0000155
 E  R0000157
 E  R0000170
 E  R0000172
 E  R0000175
 E  R0000177
 E  R0000182
 E  R0000214
 E  R0000220
 E  R0000121
 E  R0000231
 E  R0000212
 E  R0000229
 E  R0000222
 E  R0000228
 E  R0000122
 E  R0000146
 E  R0000147
 E  R0000151
 E  R0000152
 E  R0000161
 E  R0000183
 E  R0000184
 E  R0000185
 E  R0000187
 E  R0000215
 E  R0000153
 E  R0000186
 E  R0000193
 E  R0000194
 E  R0000217
COLUMNS
    MARK0000  'MARKER'                 'INTORG'
    C0009042         OBJ                             0 R0000001             -1.50859e+07
    C0009042         R0000230                        1 R0000231                        1
    C0009042         R0000222                        1 R0000228                        1
    C0009042         R0000146                        1 R0000147                        1
    C0009042         R0000151                        1 R0000152                        1
    C0009042         R0000161                        1 R0000183                        1
    C0009042         R0000184                        1 R0000185                        1
    C0009042         R0000187                        1 R0000153                        1
    C0009042         R0000186                        1 R0000193                        1
    C0009042         R0000194                        1 R0000217                        1
    C0010502         OBJ                             0 R0000001             -1.91101e+07
    C0010502         R0000230                        1 R0000160                        1
    C0010502         R0000159                        1 R0000123                        1
    C0010502         R0000124                        1 R0000125                        1
    C0010502         R0000127                        1 R0000154                        1
    C0010502         R0000155                        1 R0000157                        1
    C0010502         R0000170                        1 R0000172                        1
    C0010502         R0000175                        1 R0000177                        1
    C0010502         R0000182                        1 R0000214                        1
    C0010502         R0000220                        1 R0000121                        1
    C0010502         R0000212                        1 R0000229                        1
    C0010502         R0000122                        1 R0000215                        1
    C0005603         OBJ                             0 R0000001             -1.91091e+07
    C0005603         R0000230                        1 R0000160                        1
    C0005603         R0000159                        1 R0000123                        1
    C0005603         R0000124                        1 R0000125                        1
    C0005603         R0000127                        1 R0000154                        1
    C0005603         R0000155                        1 R0000157                        1
    C0005603         R0000170                        1 R0000172                        1
    C0005603         R0000175                        1 R0000177                        1
    C0005603         R0000182                        1 R0000214                        1
    C0005603         R0000220                        1 R0000121                        1
    C0005603         R0000212                        1 R0000229                        1
    C0005603         R0000215                        1
    C0007896         OBJ                             0 R0000001             -1.40809e+07
    C0007896         R0000230                        1 R0000231                        1
    C0007896         R0000222                        1 R0000228                        1
    C0007896         R0000146                        1 R0000147                        1
    C0007896         R0000151                        1 R0000152                        1
    C0007896         R0000161                        1 R0000183                        1
    C0007896         R0000184                        1 R0000185                        1
    C0007896         R0000187                        1 R0000186                        1
    C0007896         R0000193                        1 R0000194                        1
    C0007896         R0000217                        1
    C0009044         OBJ                             0 R0000001             -1.60945e+07
    C0009044         R0000230                        1 R0000231                        1
    C0009044         R0000222                        1 R0000228                        1
    C0009044         R0000146                        1 R0000147                        1
    C0009044         R0000151                        1 R0000152                        1
    C0009044         R0000161                        1 R0000183                        1
    C0009044         R0000184                        1 R0000185                        1
    C0009044         R0000187                        1 R0000153                        1
    C0009044         R0000186                        1 R0000193                        1
    C0009044         R0000194                        1 R0000217                        1
    C0009046         OBJ                             0 R0000001             -1.50838e+07
    C0009046         R0000230                        1 R0000231                        1
    C0009046         R0000222                        1 R0000228                        1
    C0009046         R0000146                        1 R0000147                        1
    C0009046         R0000151                        1 R0000152                        1
    C0009046         R0000161                        1 R0000183                        1
    C0009046         R0000184                        1 R0000185                        1
    C0009046         R0000187                        1 R0000153                        1
    C0009046         R0000186                        1 R0000193                        1
    C0009046         R0000194                        1 R0000217                        1
    C0009051         OBJ                             0 R0000001             -1.40816e+07
    C0009051         R0000160                        1 R0000146                        1
    C0009051         R0000147                        1 R0000151                        1
    C0009051         R0000152                        1 R0000161                        1
    C0009051         R0000183                        1 R0000184                        1
    C0009051         R0000185                        1 R0000187                        1
    C0009051         R0000153                        1
    C0010424         OBJ                             0 R0000001             -1.81045e+07
    C0010424         R0000230                        1 R0000160                        1
    C0010424         R0000159                        1 R0000123                        1
    C0010424         R0000124                        1 R0000125                        1
    C0010424         R0000127                        1 R0000154                        1
    C0010424         R0000155                        1 R0000157                        1
    C0010424         R0000170                        1 R0000172                        1
    C0010424         R0000175                        1 R0000177                        1
    C0010424         R0000182                        1 R0000214                        1
    C0010424         R0000220                        1 R0000121                        1
    C0010424         R0000212                        1 R0000229                        1
    C0010424         R0000122                        1
    C0010504         OBJ                             0 R0000001             -1.81011e+07
    C0010504         R0000230                        1 R0000160                        1
    C0010504         R0000159                        1 R0000154                        1
    C0010504         R0000155                        1 R0000214                        1
    C0010504         R0000220                        1 R0000212                        1
    C0010504         R0000229                        1 R0000215                        1
    C0010730         OBJ                             0 R0000001             -1.60905e+07
    C0010730         R0000230                        1 R0000160                        1
    C0010730         R0000159                        1 R0000123                        1
    C0010730         R0000124                        1 R0000125                        1
    C0010730         R0000127                        1 R0000154                        1
    C0010730         R0000155                        1 R0000157                        1
    C0010730         R0000170                        1 R0000172                        1
    C0010730         R0000175                        1 R0000177                        1
    C0010730         R0000182                        1 R0000214                        1
    C0010730         R0000220                        1 R0000121                        1
    C0010730         R0000231                        1 R0000122                        1
    C0010753         OBJ                             0 R0000001             -1.70996e+07
    C0010753         R0000230                        1 R0000160                        1
    C0010753         R0000159                        1 R0000123                        1
    C0010753         R0000124                        1 R0000125                        1
    C0010753         R0000127                        1 R0000154                        1
    C0010753         R0000155                        1 R0000157                        1
    C0010753         R0000170                        1 R0000172                        1
    C0010753         R0000175                        1 R0000177                        1
    C0010753         R0000182                        1 R0000214                        1
    C0010753         R0000220                        1 R0000121                        1
    C0010753         R0000231                        1 R0000228                        1
    C0010753         R0000122                        1
    C0010806         OBJ                             0 R0000001             -1.91077e+07
    C0010806         R0000160                        1 R0000159                        1
    C0010806         R0000123                        1 R0000124                        1
    C0010806         R0000125                        1 R0000127                        1
    C0010806         R0000157                        1 R0000170                        1
    C0010806         R0000172                        1 R0000175                        1
    C0010806         R0000177                        1 R0000182                        1
    C0010806         R0000121                        1 R0000222                        1
    C0010806         R0000122                        1
    C0005600         OBJ                             0 R0000001             -1.81034e+07
    C0005600         R0000230                        1 R0000160                        1
    C0005600         R0000159                        1 R0000123                        1
    C0005600         R0000124                        1 R0000125                        1
    C0005600         R0000127                        1 R0000154                        1
    C0005600         R0000155                        1 R0000157                        1
    C0005600         R0000170                        1 R0000172                        1
    C0005600         R0000175                        1 R0000177                        1
    C0005600         R0000182                        1 R0000214                        1
    C0005600         R0000220                        1 R0000121                        1
    C0005600         R0000212                        1 R0000229                        1
    C0005615         OBJ                             0 R0000001             -1.60895e+07
    C0005615         R0000230                        1 R0000160                        1
    C0005615         R0000159                        1 R0000123                        1
    C0005615         R0000124                        1 R0000125                        1
    C0005615         R0000127                        1 R0000154                        1
    C0005615         R0000155                        1 R0000157                        1
    C0005615         R0000170                        1 R0000172                        1
    C0005615         R0000175                        1 R0000177                        1
    C0005615         R0000182                        1 R0000214                        1
    C0005615         R0000220                        1 R0000121                        1
    C0005615         R0000231                        1
    C0005617         OBJ                             0 R0000001             -1.70986e+07
    C0005617         R0000230                        1 R0000160                        1
    C0005617         R0000159                        1 R0000123                        1
    C0005617         R0000124                        1 R0000125                        1
    C0005617         R0000127                        1 R0000154                        1
    C0005617         R0000155                        1 R0000157                        1
    C0005617         R0000170                        1 R0000172                        1
    C0005617         R0000175                        1 R0000177                        1
    C0005617         R0000182                        1 R0000214                        1
    C0005617         R0000220                        1 R0000121                        1
    C0005617         R0000231                        1 R0000228                        1
    C0005627         OBJ                             0 R0000001             -1.81066e+07
    C0005627         R0000160                        1 R0000159                        1
    C0005627         R0000123                        1 R0000124                        1
    C0005627         R0000125                        1 R0000127                        1
    C0005627         R0000157                        1 R0000170                        1
    C0005627         R0000172                        1 R0000175                        1
    C0005627         R0000177                        1 R0000182                        1
    C0005627         R0000121                        1 R0000222                        1
    C0006099         OBJ                             0 R0000001             -1.81028e+07
    C0006099         R0000230                        1 R0000160                        1
    C0006099         R0000159                        1 R0000123                        1
    C0006099         R0000124                        1 R0000125                        1
    C0006099         R0000127                        1 R0000154                        1
    C0006099         R0000155                        1 R0000157                        1
    C0006099         R0000170                        1 R0000172                        1
    C0006099         R0000175                        1 R0000177                        1
    C0006099         R0000182                        1 R0000214                        1
    C0006099         R0000220                        1 R0000212                        1
    C0006099         R0000229                        1 R0000215                        1
    C0006195         OBJ                             0 R0000001             -1.70993e+07
    C0006195         R0000230                        1 R0000160                        1
    C0006195         R0000159                        1 R0000154                        1
    C0006195         R0000155                        1 R0000214                        1
    C0006195         R0000220                        1 R0000212                        1
    C0006195         R0000229                        1 R0000215                        1
    MARK0001  'MARKER'                 'INTEND'
RHS
    RHS1              R0000001                        0
    RHS1              R0000230                        0
    RHS1              R0000160                        0
    RHS1              R0000159                        0
    RHS1              R0000123                        0
    RHS1              R0000124                        0
    RHS1              R0000125                        0
    RHS1              R0000127                        0
    RHS1              R0000154                        0
    RHS1              R0000155                        0
    RHS1              R0000157                        0
    RHS1              R0000170                        0
    RHS1              R0000172                        0
    RHS1              R0000175                        0
    RHS1              R0000177                        0
    RHS1              R0000182                        0
    RHS1              R0000214                        0
    RHS1              R0000220                        0
    RHS1              R0000121                        0
    RHS1              R0000231                        0
    RHS1              R0000212                        0
    RHS1              R0000229                        0
    RHS1              R0000222                        0
    RHS1              R0000228                        0
    RHS1              R0000122                        0
    RHS1              R0000146                        0
    RHS1              R0000147                        0
    RHS1              R0000151                        0
    RHS1              R0000152                        0
    RHS1              R0000161                        0
    RHS1              R0000183                        0
    RHS1              R0000184                        0
    RHS1              R0000185                        0
    RHS1              R0000187                        0
    RHS1              R0000215                        0
    RHS1              R0000153                        0
    RHS1              R0000186                        0
    RHS1              R0000193                        0
    RHS1              R0000194                        0
    RHS1              R0000217                        0
BOUNDS
 LI BND1              C0009042                        0
 UI BND1              C0009042                        6
 LI BND1              C0010502                        0
 UI BND1              C0010502                        6
 LI BND1              C0005603                        0
 UI BND1              C0005603                        6
 LI BND1              C0007896                        0
 UI BND1              C0007896                        6
 LI BND1              C0009044                        0
 UI BND1              C0009044                        6
 LI BND1              C0009046                        0
 UI BND1              C0009046                        6
 LI BND1              C0009051                        0
 UI BND1              C0009051                        6
 LI BND1              C0010424                        0
 UI BND1              C0010424                        6
 LI BND1              C0010504                        0
 UI BND1              C0010504                        6
 LI BND1              C0010730                        0
 UI BND1              C0010730                        6
 LI BND1              C0010753                        0
 UI BND1              C0010753                        6
 LI BND1              C0010806                        0
 UI BND1              C0010806                        6
 LI BND1              C0005600                        0
 UI BND1              C0005600                        6
 LI BND1              C0005615                        0
 UI BND1              C0005615                        6
 LI BND1              C0005617                        0
 UI BND1              C0005617                        6
 LI BND1              C0005627                        0
 UI BND1              C0005627                        6
 LI BND1              C0006099                        0
 UI BND1              C0006099                        6
 LI BND1              C0006195                        0
 UI BND1              C0006195                        6
ENDATA
