NAME          leo1_ds
OBJSENSE
 MIN
ROWS
 N  OBJ
 E  R0000001
 G  R0000002
 G  R0000004
 G  R0000010
 G  R0000011
 G  R0000027
 G  R0000030
 G  R0000031
 G  R0000043
 G  R0000048
 G  R0000049
 G  R0000050
 G  R0000052
 G  R0000058
 G  R0000059
 G  R0000075
 G  R0000078
 G  R0000079
 G  R0000091
 G  R0000096
 G  R0000097
 G  R0000535
 G  R0000538
 G  R0000542
 G  R0000544
 G  R0000550
 G  R0000551
 G  R0000567
 G  R0000570
 G  R0000571
 G  R0000583
 G  R0000588
 G  R0000589
 G  R0000042
 G  R0000047
 G  R0000090
 G  R0000095
 L  R0000335
 L  R0000339
 G  R0000541
COLUMNS
    MARK0000  'MARKER'                 'INTORG'
    C0003533         OBJ                             0 R0000001             -7.22033e+08
    C0003533         R0000002                        3 R0000004                        3
    C0003533         R0000010                        3 R0000011                        3
    C0003533         R0000027                        3 R0000030                        3
    C0003533         R0000031                        3 R0000043                        3
    C0003533         R0000048                        3 R0000049                        3
    C0003533         R0000050                        1 R0000052                        1
    C0003533         R0000058                        1 R0000059                        1
    C0003533         R0000075                        1 R0000078                        1
    C0003533         R0000079                        1 R0000091                        1
    C0003533         R0000096                        1 R0000097                        1
    C0003533         R0000535                        1 R0000538                        1
    C0003533         R0000542                        1 R0000544                        1
    C0003533         R0000550                        1 R0000551                        1
    C0003533         R0000567                        1 R0000570                        1
    C0003533         R0000571                        1 R0000583                        1
    C0003533         R0000588                        1 R0000589                        1
    C0003533         R0000042                        3 R0000090                        1
    C0003533         R0000335                        1 R0000541                        1
    C0003534         OBJ                             0 R0000001              -8.4727e+08
    C0003534         R0000002                        4 R0000004                        4
    C0003534         R0000010                        4 R0000011                        4
    C0003534         R0000027                        4 R0000030                        4
    C0003534         R0000031                        4 R0000043                        4
    C0003534         R0000048                        4 R0000049                        4
    C0003534         R0000050                        1 R0000052                        1
    C0003534         R0000058                        1 R0000059                        1
    C0003534         R0000075                        1 R0000078                        1
    C0003534         R0000079                        1 R0000091                        1
    C0003534         R0000096                        1 R0000097                        1
    C0003534         R0000535                        1 R0000538                        1
    C0003534         R0000542                        2 R0000544                        1
    C0003534         R0000550                        1 R0000551                        1
    C0003534         R0000567                        1 R0000570                        1
    C0003534         R0000571                        2 R0000583                        1
    C0003534         R0000588                        1 R0000589                        1
    C0003534         R0000042                        3 R0000090                        1
    C0003534         R0000335                        1 R0000541                        1
    C0003535         OBJ                             0 R0000001             -1.09775e+09
    C0003535         R0000002                        4 R0000004                        6
    C0003535         R0000010                        6 R0000011                        6
    C0003535         R0000027                        6 R0000030                        6
    C0003535         R0000031                        4 R0000043                        6
    C0003535         R0000048                        6 R0000049                        6
    C0003535         R0000050                        1 R0000052                        1
    C0003535         R0000058                        1 R0000059                        1
    C0003535         R0000075                        1 R0000078                        1
    C0003535         R0000079                        1 R0000091                        1
    C0003535         R0000096                        1 R0000097                        1
    C0003535         R0000535                        1 R0000538                        1
    C0003535         R0000542                        2 R0000544                        1
    C0003535         R0000550                        1 R0000551                        2
    C0003535         R0000567                        1 R0000570                        1
    C0003535         R0000571                        2 R0000583                        2
    C0003535         R0000588                        1 R0000589                        1
    C0003535         R0000042                        3 R0000090                        1
    C0003535         R0000335                        1 R0000541                        1
    C0003536         OBJ                             0 R0000001             -1.22298e+09
    C0003536         R0000002                        4 R0000004                        7
    C0003536         R0000010                        7 R0000011                        6
    C0003536         R0000027                        7 R0000030                        7
    C0003536         R0000031                        4 R0000043                        6
    C0003536         R0000048                        7 R0000049                        7
    C0003536         R0000050                        1 R0000052                        1
    C0003536         R0000058                        1 R0000059                        1
    C0003536         R0000075                        1 R0000078                        1
    C0003536         R0000079                        1 R0000091                        1
    C0003536         R0000096                        1 R0000097                        1
    C0003536         R0000535                        1 R0000538                        1
    C0003536         R0000542                        2 R0000544                        1
    C0003536         R0000550                        1 R0000551                        2
    C0003536         R0000567                        1 R0000570                        1
    C0003536         R0000571                        2 R0000583                        2
    C0003536         R0000588                        1 R0000589                        1
    C0003536         R0000042                        3 R0000090                        1
    C0003536         R0000335                        1 R0000541                        1
    C0003537         OBJ                             0 R0000001             -1.34822e+09
    C0003537         R0000002                        4 R0000004                        8
    C0003537         R0000010                        8 R0000011                        6
    C0003537         R0000027                        8 R0000030                        8
    C0003537         R0000031                        4 R0000043                        6
    C0003537         R0000048                        8 R0000049                        8
    C0003537         R0000050                        1 R0000052                        1
    C0003537         R0000058                        1 R0000059                        1
    C0003537         R0000075                        1 R0000078                        1
    C0003537         R0000079                        1 R0000091                        1
    C0003537         R0000096                        1 R0000097                        1
    C0003537         R0000535                        1 R0000538                        1
    C0003537         R0000542                        2 R0000544                        1
    C0003537         R0000550                        1 R0000551                        2
    C0003537         R0000567                        1 R0000570                        1
    C0003537         R0000571                        2 R0000583                        2
    C0003537         R0000588                        1 R0000589                        1
    C0003537         R0000042                        3 R0000090                        1
    C0003537         R0000335                        1 R0000541                        1
    C0003538         OBJ                             0 R0000001             -1.47346e+09
    C0003538         R0000002                        4 R0000004                        9
    C0003538         R0000010                        9 R0000011                        6
    C0003538         R0000027                        9 R0000030                        9
    C0003538         R0000031                        4 R0000043                        6
    C0003538         R0000048                        9 R0000049                        9
    C0003538         R0000050                        1 R0000052                        1
    C0003538         R0000058                        1 R0000059                        1
    C0003538         R0000075                        1 R0000078                        1
    C0003538         R0000079                        1 R0000091                        1
    C0003538         R0000096                        1 R0000097                        1
    C0003538         R0000535                        1 R0000538                        1
    C0003538         R0000542                        2 R0000544                        1
    C0003538         R0000550                        2 R0000551                        2
    C0003538         R0000567                        1 R0000570                        1
    C0003538         R0000571                        2 R0000583                        2
    C0003538         R0000588                        2 R0000589                        1
    C0003538         R0000042                        3 R0000090                        1
    C0003538         R0000335                        1 R0000541                        1
    C0003539         OBJ                             0 R0000001              -1.5987e+09
    C0003539         R0000002                        4 R0000004                       10
    C0003539         R0000010                        9 R0000011                        6
    C0003539         R0000027                       10 R0000030                       10
    C0003539         R0000031                        4 R0000043                        6
    C0003539         R0000048                        9 R0000049                       10
    C0003539         R0000050                        1 R0000052                        1
    C0003539         R0000058                        1 R0000059                        1
    C0003539         R0000075                        1 R0000078                        1
    C0003539         R0000079                        1 R0000091                        1
    C0003539         R0000096                        1 R0000097                        1
    C0003539         R0000535                        1 R0000538                        1
    C0003539         R0000542                        2 R0000544                        1
    C0003539         R0000550                        2 R0000551                        2
    C0003539         R0000567                        1 R0000570                        2
    C0003539         R0000571                        2 R0000583                        2
    C0003539         R0000588                        2 R0000589                        2
    C0003539         R0000042                        3 R0000090                        1
    C0003539         R0000335                        1 R0000541                        1
    C0003540         OBJ                             0 R0000001             -1.72393e+09
    C0003540         R0000002                        4 R0000004                       11
    C0003540         R0000010                        9 R0000011                        6
    C0003540         R0000027                       11 R0000030                       10
    C0003540         R0000031                        4 R0000043                        6
    C0003540         R0000048                        9 R0000049                       10
    C0003540         R0000050                        1 R0000052                        1
    C0003540         R0000058                        1 R0000059                        1
    C0003540         R0000075                        1 R0000078                        1
    C0003540         R0000079                        1 R0000091                        1
    C0003540         R0000096                        1 R0000097                        1
    C0003540         R0000535                        1 R0000538                        1
    C0003540         R0000542                        2 R0000544                        1
    C0003540         R0000550                        2 R0000551                        2
    C0003540         R0000567                        1 R0000570                        2
    C0003540         R0000571                        2 R0000583                        2
    C0003540         R0000588                        2 R0000589                        2
    C0003540         R0000042                        3 R0000090                        1
    C0003540         R0000335                        1 R0000541                        1
    C0003541         OBJ                             0 R0000001             -1.84917e+09
    C0003541         R0000002                        4 R0000004                       12
    C0003541         R0000010                        9 R0000011                        6
    C0003541         R0000027                       12 R0000030                       10
    C0003541         R0000031                        4 R0000043                        6
    C0003541         R0000048                        9 R0000049                       10
    C0003541         R0000050                        1 R0000052                        1
    C0003541         R0000058                        1 R0000059                        1
    C0003541         R0000075                        1 R0000078                        1
    C0003541         R0000079                        1 R0000091                        1
    C0003541         R0000096                        1 R0000097                        1
    C0003541         R0000535                        1 R0000538                        1
    C0003541         R0000542                        2 R0000544                        1
    C0003541         R0000550                        2 R0000551                        2
    C0003541         R0000567                        1 R0000570                        2
    C0003541         R0000571                        2 R0000583                        2
    C0003541         R0000588                        2 R0000589                        2
    C0003541         R0000042                        3 R0000090                        1
    C0003541         R0000335                        1 R0000541                        1
    C0003572         OBJ                             0 R0000001              -7.2537e+08
    C0003572         R0000002                        3 R0000004                        3
    C0003572         R0000010                        3 R0000011                        3
    C0003572         R0000027                        3 R0000030                        3
    C0003572         R0000031                        3 R0000043                        3
    C0003572         R0000048                        3 R0000049                        3
    C0003572         R0000050                        1 R0000052                        1
    C0003572         R0000058                        1 R0000059                        1
    C0003572         R0000075                        1 R0000078                        1
    C0003572         R0000079                        1 R0000091                        1
    C0003572         R0000096                        1 R0000097                        1
    C0003572         R0000535                        1 R0000538                        1
    C0003572         R0000542                        1 R0000544                        1
    C0003572         R0000550                        1 R0000551                        1
    C0003572         R0000567                        1 R0000570                        1
    C0003572         R0000571                        1 R0000583                        1
    C0003572         R0000588                        1 R0000589                        1
    C0003572         R0000047                        3 R0000095                        1
    C0003572         R0000339                        1
    C0003573         OBJ                             0 R0000001              -8.5095e+08
    C0003573         R0000002                        4 R0000004                        4
    C0003573         R0000010                        4 R0000011                        4
    C0003573         R0000027                        4 R0000030                        4
    C0003573         R0000031                        4 R0000043                        4
    C0003573         R0000048                        4 R0000049                        4
    C0003573         R0000050                        1 R0000052                        1
    C0003573         R0000058                        1 R0000059                        1
    C0003573         R0000075                        1 R0000078                        1
    C0003573         R0000079                        1 R0000091                        1
    C0003573         R0000096                        1 R0000097                        1
    C0003573         R0000535                        1 R0000538                        1
    C0003573         R0000542                        2 R0000544                        1
    C0003573         R0000550                        1 R0000551                        1
    C0003573         R0000567                        1 R0000570                        1
    C0003573         R0000571                        2 R0000583                        1
    C0003573         R0000588                        1 R0000589                        1
    C0003573         R0000047                        4 R0000095                        1
    C0003573         R0000339                        1
    C0003574         OBJ                             0 R0000001             -1.10211e+09
    C0003574         R0000002                        4 R0000004                        6
    C0003574         R0000010                        6 R0000011                        6
    C0003574         R0000027                        6 R0000030                        6
    C0003574         R0000031                        4 R0000043                        6
    C0003574         R0000048                        6 R0000049                        6
    C0003574         R0000050                        1 R0000052                        1
    C0003574         R0000058                        1 R0000059                        1
    C0003574         R0000075                        1 R0000078                        1
    C0003574         R0000079                        1 R0000091                        1
    C0003574         R0000096                        1 R0000097                        1
    C0003574         R0000535                        1 R0000538                        1
    C0003574         R0000542                        2 R0000544                        1
    C0003574         R0000550                        1 R0000551                        2
    C0003574         R0000567                        1 R0000570                        1
    C0003574         R0000571                        2 R0000583                        2
    C0003574         R0000588                        1 R0000589                        1
    C0003574         R0000047                        6 R0000095                        1
    C0003574         R0000339                        1
    C0003575         OBJ                             0 R0000001             -1.22769e+09
    C0003575         R0000002                        4 R0000004                        7
    C0003575         R0000010                        7 R0000011                        6
    C0003575         R0000027                        7 R0000030                        7
    C0003575         R0000031                        4 R0000043                        6
    C0003575         R0000048                        7 R0000049                        7
    C0003575         R0000050                        1 R0000052                        1
    C0003575         R0000058                        1 R0000059                        1
    C0003575         R0000075                        1 R0000078                        1
    C0003575         R0000079                        1 R0000091                        1
    C0003575         R0000096                        1 R0000097                        1
    C0003575         R0000535                        1 R0000538                        1
    C0003575         R0000542                        2 R0000544                        1
    C0003575         R0000550                        1 R0000551                        2
    C0003575         R0000567                        1 R0000570                        1
    C0003575         R0000571                        2 R0000583                        2
    C0003575         R0000588                        1 R0000589                        1
    C0003575         R0000047                        6 R0000095                        1
    C0003575         R0000339                        1
    C0003576         OBJ                             0 R0000001             -1.35327e+09
    C0003576         R0000002                        4 R0000004                        8
    C0003576         R0000010                        8 R0000011                        6
    C0003576         R0000027                        8 R0000030                        8
    C0003576         R0000031                        4 R0000043                        6
    C0003576         R0000048                        8 R0000049                        8
    C0003576         R0000050                        1 R0000052                        1
    C0003576         R0000058                        1 R0000059                        1
    C0003576         R0000075                        1 R0000078                        1
    C0003576         R0000079                        1 R0000091                        1
    C0003576         R0000096                        1 R0000097                        1
    C0003576         R0000535                        1 R0000538                        1
    C0003576         R0000542                        2 R0000544                        1
    C0003576         R0000550                        1 R0000551                        2
    C0003576         R0000567                        1 R0000570                        1
    C0003576         R0000571                        2 R0000583                        2
    C0003576         R0000588                        1 R0000589                        1
    C0003576         R0000047                        6 R0000095                        1
    C0003576         R0000339                        1
    C0003577         OBJ                             0 R0000001             -1.47885e+09
    C0003577         R0000002                        4 R0000004                        9
    C0003577         R0000010                        9 R0000011                        6
    C0003577         R0000027                        9 R0000030                        9
    C0003577         R0000031                        4 R0000043                        6
    C0003577         R0000048                        9 R0000049                        9
    C0003577         R0000050                        1 R0000052                        1
    C0003577         R0000058                        1 R0000059                        1
    C0003577         R0000075                        1 R0000078                        1
    C0003577         R0000079                        1 R0000091                        1
    C0003577         R0000096                        1 R0000097                        1
    C0003577         R0000535                        1 R0000538                        1
    C0003577         R0000542                        2 R0000544                        1
    C0003577         R0000550                        2 R0000551                        2
    C0003577         R0000567                        1 R0000570                        1
    C0003577         R0000571                        2 R0000583                        2
    C0003577         R0000588                        2 R0000589                        1
    C0003577         R0000047                        6 R0000095                        1
    C0003577         R0000339                        1
    C0003578         OBJ                             0 R0000001             -1.60443e+09
    C0003578         R0000002                        4 R0000004                       10
    C0003578         R0000010                        9 R0000011                        6
    C0003578         R0000027                       10 R0000030                       10
    C0003578         R0000031                        4 R0000043                        6
    C0003578         R0000048                        9 R0000049                       10
    C0003578         R0000050                        1 R0000052                        1
    C0003578         R0000058                        1 R0000059                        1
    C0003578         R0000075                        1 R0000078                        1
    C0003578         R0000079                        1 R0000091                        1
    C0003578         R0000096                        1 R0000097                        1
    C0003578         R0000535                        1 R0000538                        1
    C0003578         R0000542                        2 R0000544                        1
    C0003578         R0000550                        2 R0000551                        2
    C0003578         R0000567                        1 R0000570                        2
    C0003578         R0000571                        2 R0000583                        2
    C0003578         R0000588                        2 R0000589                        2
    C0003578         R0000047                        6 R0000095                        1
    C0003578         R0000339                        1
    C0003579         OBJ                             0 R0000001             -1.73001e+09
    C0003579         R0000002                        4 R0000004                       11
    C0003579         R0000010                        9 R0000011                        6
    C0003579         R0000027                       11 R0000030                       10
    C0003579         R0000031                        4 R0000043                        6
    C0003579         R0000048                        9 R0000049                       10
    C0003579         R0000050                        1 R0000052                        1
    C0003579         R0000058                        1 R0000059                        1
    C0003579         R0000075                        1 R0000078                        1
    C0003579         R0000079                        1 R0000091                        1
    C0003579         R0000096                        1 R0000097                        1
    C0003579         R0000535                        1 R0000538                        1
    C0003579         R0000542                        2 R0000544                        1
    C0003579         R0000550                        2 R0000551                        2
    C0003579         R0000567                        1 R0000570                        2
    C0003579         R0000571                        2 R0000583                        2
    C0003579         R0000588                        2 R0000589                        2
    C0003579         R0000047                        6 R0000095                        1
    C0003579         R0000339                        1
    C0003580         OBJ                             0 R0000001             -1.85559e+09
    C0003580         R0000002                        4 R0000004                       12
    C0003580         R0000010                        9 R0000011                        6
    C0003580         R0000027                       12 R0000030                       10
    C0003580         R0000031                        4 R0000043                        6
    C0003580         R0000048                        9 R0000049                       10
    C0003580         R0000050                        1 R0000052                        1
    C0003580         R0000058                        1 R0000059                        1
    C0003580         R0000075                        1 R0000078                        1
    C0003580         R0000079                        1 R0000091                        1
    C0003580         R0000096                        1 R0000097                        1
    C0003580         R0000535                        1 R0000538                        1
    C0003580         R0000542                        2 R0000544                        1
    C0003580         R0000550                        2 R0000551                        2
    C0003580         R0000567                        1 R0000570                        2
    C0003580         R0000571                        2 R0000583                        2
    C0003580         R0000588                        2 R0000589                        2
    C0003580         R0000047                        6 R0000095                        1
    C0003580         R0000339                        1
    MARK0001  'MARKER'                 'INTEND'
RHS
    RHS1              R0000001                        0
    RHS1              R0000002                        4
    RHS1              R0000004                       15
    RHS1              R0000010                        9
    RHS1              R0000011                        6
    RHS1              R0000027                       13
    RHS1              R0000030                       10
    RHS1              R0000031                        4
    RHS1              R0000043                        6
    RHS1              R0000048                        9
    RHS1              R0000049                       10
    RHS1              R0000050                        1
    RHS1              R0000052                        2
    RHS1              R0000058                        2
    RHS1              R0000059                        2
    RHS1              R0000075                        2
    RHS1              R0000078                        2
    RHS1              R0000079                        1
    RHS1              R0000091                        2
    RHS1              R0000096                        2
    RHS1              R0000097                        2
    RHS1              R0000535                        1
    RHS1              R0000538                        1
    RHS1              R0000542                        2
    RHS1              R0000544                        2
    RHS1              R0000550                        2
    RHS1              R0000551                        2
    RHS1              R0000567                        2
    RHS1              R0000570                        2
    RHS1              R0000571                        2
    RHS1              R0000583                        2
    RHS1              R0000588                        2
    RHS1              R0000589                        2
    RHS1              R0000042                        3
    RHS1              R0000047                        6
    RHS1              R0000090                        1
    RHS1              R0000095                        2
    RHS1              R0000335                        1
    RHS1              R0000339                        1
    RHS1              R0000541                        1
BOUNDS
 BV BND1              C0003533
 BV BND1              C0003534
 BV BND1              C0003535
 BV BND1              C0003536
 BV BND1              C0003537
 BV BND1              C0003538
 BV BND1              C0003539
 BV BND1              C0003540
 BV BND1              C0003541
 BV BND1              C0003572
 BV BND1              C0003573
 BV BND1              C0003574
 BV BND1              C0003575
 BV BND1              C0003576
 BV BND1              C0003577
 BV BND1              C0003578
 BV BND1              C0003579
 BV BND1              C0003580
ENDATA
