NAME          sp97ar_ds
OBJSENSE
 MIN
ROWS
 N  OBJ
 G  c143
 G  c205
 G  c206
 G  c250
 G  c257
 G  c270
 G  c271
 G  c277
 G  c278
 G  c291
 G  c292
 G  c297
 G  c309
 G  c310
 G  c339
 G  c341
 G  c345
 G  c353
 G  c359
 G  c361
 G  c362
 G  c384
 G  c393
 G  c399
 G  c407
 G  c421
 G  c426
 G  c451
 G  c455
 G  c465
 G  c475
 G  c478
 G  c486
 G  c505
 G  c508
 G  c511
 G  c516
 G  c518
 G  c527
 G  c529
COLUMNS
    MARK0000  'MARKER'                 'INTORG'
    x10740           OBJ                   1.98527e+08 c143                            1
    x10740           c205                            1 c206                            1
    x10740           c250                            1 c257                            1
    x10740           c270                            1 c271                            1
    x10740           c277                            1 c278                            1
    x10740           c291                            1 c292                            1
    x10740           c297                            1 c309                            1
    x10740           c310                            1 c339                            1
    x10740           c341                            1 c345                            1
    x10740           c353                            1 c359                            2
    x10740           c361                            1 c362                            2
    x10740           c384                            1 c393                            1
    x10740           c399                            2 c407                            1
    x10740           c421                            1 c426                            1
    x10740           c451                            1 c455                            2
    x10740           c465                            1 c475                            1
    x10740           c478                            1 c486                            1
    x10740           c505                            1 c508                            1
    x10740           c511                            2 c516                            1
    x10740           c518                            1 c527                            1
    x10740           c529                            1
    x10741           OBJ                   2.91844e+08 c143                            1
    x10741           c205                            1 c206                            2
    x10741           c250                            2 c257                            2
    x10741           c270                            1 c271                            2
    x10741           c277                            1 c278                            2
    x10741           c291                            1 c292                            2
    x10741           c297                            2 c309                            1
    x10741           c310                            2 c339                            2
    x10741           c341                            2 c345                            1
    x10741           c353                            2 c359                            4
    x10741           c361                            2 c362                            2
    x10741           c384                            1 c393                            1
    x10741           c399                            2 c407                            1
    x10741           c421                            1 c426                            1
    x10741           c451                            2 c455                            3
    x10741           c465                            1 c475                            2
    x10741           c478                            2 c486                            1
    x10741           c505                            1 c508                            1
    x10741           c511                            2 c516                            1
    x10741           c518                            1 c527                            2
    x10741           c529                            2
    x10742           OBJ                   3.85161e+08 c143                            1
    x10742           c205                            1 c206                            3
    x10742           c250                            3 c257                            3
    x10742           c270                            1 c271                            3
    x10742           c277                            1 c278                            2
    x10742           c291                            1 c292                            2
    x10742           c297                            3 c309                            1
    x10742           c310                            3 c339                            3
    x10742           c341                            3 c345                            1
    x10742           c353                            3 c359                            6
    x10742           c361                            3 c362                            2
    x10742           c384                            1 c393                            1
    x10742           c399                            2 c407                            2
    x10742           c421                            1 c426                            1
    x10742           c451                            2 c455                            5
    x10742           c465                            2 c475                            3
    x10742           c478                            3 c486                            1
    x10742           c505                            1 c508                            2
    x10742           c511                            2 c516                            2
    x10742           c518                            1 c527                            3
    x10742           c529                            3
    x10743           OBJ                   4.78477e+08 c143                            1
    x10743           c205                            1 c206                            4
    x10743           c250                            4 c257                            3
    x10743           c270                            1 c271                            3
    x10743           c277                            1 c278                            2
    x10743           c291                            1 c292                            2
    x10743           c297                            4 c309                            1
    x10743           c310                            4 c339                            4
    x10743           c341                            4 c345                            1
    x10743           c353                            4 c359                            8
    x10743           c361                            4 c362                            2
    x10743           c384                            1 c393                            2
    x10743           c399                            2 c407                            2
    x10743           c421                            1 c426                            1
    x10743           c451                            3 c455                            5
    x10743           c465                            2 c475                            3
    x10743           c478                            3 c486                            1
    x10743           c505                            1 c508                            2
    x10743           c511                            2 c516                            2
    x10743           c518                            1 c527                            3
    x10743           c529                            3
    x10744           OBJ                   5.71794e+08 c143                            1
    x10744           c205                            1 c206                            5
    x10744           c250                            4 c257                            3
    x10744           c270                            1 c271                            3
    x10744           c277                            1 c278                            2
    x10744           c291                            1 c292                            2
    x10744           c297                            5 c309                            1
    x10744           c310                            4 c339                            5
    x10744           c341                            5 c345                            1
    x10744           c353                            5 c359                           10
    x10744           c361                            5 c362                            2
    x10744           c384                            1 c393                            2
    x10744           c399                            2 c407                            2
    x10744           c421                            2 c426                            1
    x10744           c451                            4 c455                            5
    x10744           c465                            3 c475                            4
    x10744           c478                            4 c486                            1
    x10744           c505                            2 c508                            2
    x10744           c511                            2 c516                            2
    x10744           c518                            2 c527                            4
    x10744           c529                            3
    x10745           OBJ                   3.80124e+08 c143                            2
    x10745           c205                            2 c206                            2
    x10745           c250                            2 c257                            2
    x10745           c270                            2 c271                            2
    x10745           c277                            1 c278                            2
    x10745           c291                            2 c292                            2
    x10745           c297                            2 c309                            2
    x10745           c310                            2 c339                            2
    x10745           c341                            2 c345                            1
    x10745           c353                            2 c359                            4
    x10745           c361                            2 c362                            2
    x10745           c384                            1 c393                            1
    x10745           c399                            2 c407                            1
    x10745           c421                            1 c426                            1
    x10745           c451                            2 c455                            3
    x10745           c465                            1 c475                            2
    x10745           c478                            2 c486                            2
    x10745           c505                            1 c508                            1
    x10745           c511                            2 c516                            1
    x10745           c518                            1 c527                            2
    x10745           c529                            2
    x10746           OBJ                   5.49827e+08 c143                            2
    x10746           c205                            2 c206                            4
    x10746           c250                            4 c257                            4
    x10746           c270                            2 c271                            4
    x10746           c277                            2 c278                            3
    x10746           c291                            2 c292                            3
    x10746           c297                            4 c309                            2
    x10746           c310                            4 c339                            4
    x10746           c341                            4 c345                            1
    x10746           c353                            4 c359                            8
    x10746           c361                            4 c362                            2
    x10746           c384                            1 c393                            2
    x10746           c399                            2 c407                            2
    x10746           c421                            1 c426                            1
    x10746           c451                            3 c455                            5
    x10746           c465                            2 c475                            3
    x10746           c478                            3 c486                            2
    x10746           c505                            1 c508                            2
    x10746           c511                            2 c516                            2
    x10746           c518                            1 c527                            3
    x10746           c529                            3
    x10747           OBJ                   7.19531e+08 c143                            2
    x10747           c205                            2 c206                            6
    x10747           c250                            5 c257                            4
    x10747           c270                            2 c271                            4
    x10747           c277                            2 c278                            3
    x10747           c291                            2 c292                            3
    x10747           c297                            6 c309                            2
    x10747           c310                            5 c339                            6
    x10747           c341                            5 c345                            1
    x10747           c353                            6 c359                           12
    x10747           c361                            6 c362                            2
    x10747           c384                            2 c393                            2
    x10747           c399                            2 c407                            2
    x10747           c421                            2 c426                            2
    x10747           c451                            4 c455                            5
    x10747           c465                            3 c475                            5
    x10747           c478                            5 c486                            2
    x10747           c505                            2 c508                            2
    x10747           c511                            2 c516                            2
    x10747           c518                            2 c527                            5
    x10747           c529                            3
    x10748           OBJ                   8.89235e+08 c143                            2
    x10748           c205                            2 c206                            8
    x10748           c250                            5 c257                            4
    x10748           c270                            2 c271                            4
    x10748           c277                            2 c278                            3
    x10748           c291                            2 c292                            3
    x10748           c297                            8 c309                            2
    x10748           c310                            5 c339                            6
    x10748           c341                            5 c345                            1
    x10748           c353                            8 c359                           16
    x10748           c361                            6 c362                            2
    x10748           c384                            2 c393                            2
    x10748           c399                            2 c407                            2
    x10748           c421                            2 c426                            2
    x10748           c451                            4 c455                            5
    x10748           c465                            4 c475                            5
    x10748           c478                            6 c486                            2
    x10748           c505                            2 c508                            2
    x10748           c511                            2 c516                            2
    x10748           c518                            2 c527                            5
    x10748           c529                            3
    x10749           OBJ                   5.61721e+08 c143                            3
    x10749           c205                            3 c206                            3
    x10749           c250                            3 c257                            3
    x10749           c270                            2 c271                            3
    x10749           c277                            2 c278                            3
    x10749           c291                            2 c292                            3
    x10749           c297                            3 c309                            2
    x10749           c310                            3 c339                            3
    x10749           c341                            3 c345                            1
    x10749           c353                            3 c359                            6
    x10749           c361                            3 c362                            2
    x10749           c384                            1 c393                            1
    x10749           c399                            2 c407                            2
    x10749           c421                            1 c426                            1
    x10749           c451                            2 c455                            5
    x10749           c465                            2 c475                            3
    x10749           c478                            3 c486                            2
    x10749           c505                            1 c508                            2
    x10749           c511                            2 c516                            2
    x10749           c518                            1 c527                            3
    x10749           c529                            3
    x10750           OBJ                   8.07811e+08 c143                            3
    x10750           c205                            3 c206                            6
    x10750           c250                            6 c257                            5
    x10750           c270                            3 c271                            5
    x10750           c277                            2 c278                            3
    x10750           c291                            3 c292                            4
    x10750           c297                            6 c309                            3
    x10750           c310                            6 c339                            6
    x10750           c341                            5 c345                            1
    x10750           c353                            6 c359                           12
    x10750           c361                            6 c362                            2
    x10750           c384                            2 c393                            2
    x10750           c399                            2 c407                            2
    x10750           c421                            2 c426                            2
    x10750           c451                            4 c455                            5
    x10750           c465                            3 c475                            5
    x10750           c478                            5 c486                            3
    x10750           c505                            2 c508                            2
    x10750           c511                            2 c516                            2
    x10750           c518                            2 c527                            5
    x10750           c529                            3
    x10751           OBJ                    1.0539e+09 c143                            3
    x10751           c205                            3 c206                            8
    x10751           c250                            6 c257                            5
    x10751           c270                            3 c271                            5
    x10751           c277                            2 c278                            3
    x10751           c291                            3 c292                            4
    x10751           c297                            9 c309                            3
    x10751           c310                            6 c339                            6
    x10751           c341                            5 c345                            1
    x10751           c353                            9 c359                           18
    x10751           c361                            6 c362                            2
    x10751           c384                            2 c393                            2
    x10751           c399                            2 c407                            2
    x10751           c421                            2 c426                            2
    x10751           c451                            4 c455                            5
    x10751           c465                            5 c475                            5
    x10751           c478                            6 c486                            3
    x10751           c505                            2 c508                            2
    x10751           c511                            2 c516                            2
    x10751           c518                            2 c527                            5
    x10751           c529                            3
    x10752           OBJ                   1.29999e+09 c143                            3
    x10752           c205                            3 c206                            8
    x10752           c250                            6 c257                            5
    x10752           c270                            3 c271                            5
    x10752           c277                            2 c278                            3
    x10752           c291                            3 c292                            4
    x10752           c297                           10 c309                            3
    x10752           c310                            6 c339                            6
    x10752           c341                            5 c345                            1
    x10752           c353                           11 c359                           21
    x10752           c361                            6 c362                            2
    x10752           c384                            2 c393                            2
    x10752           c399                            2 c407                            2
    x10752           c421                            2 c426                            2
    x10752           c451                            4 c455                            5
    x10752           c465                            6 c475                            5
    x10752           c478                            6 c486                            3
    x10752           c505                            2 c508                            2
    x10752           c511                            2 c516                            2
    x10752           c518                            2 c527                            5
    x10752           c529                            3
    x10753           OBJ                   7.43318e+08 c143                            4
    x10753           c205                            4 c206                            4
    x10753           c250                            4 c257                            4
    x10753           c270                            2 c271                            4
    x10753           c277                            2 c278                            3
    x10753           c291                            3 c292                            4
    x10753           c297                            4 c309                            2
    x10753           c310                            4 c339                            4
    x10753           c341                            4 c345                            1
    x10753           c353                            4 c359                            8
    x10753           c361                            4 c362                            2
    x10753           c384                            1 c393                            2
    x10753           c399                            2 c407                            2
    x10753           c421                            1 c426                            1
    x10753           c451                            3 c455                            5
    x10753           c465                            2 c475                            3
    x10753           c478                            3 c486                            2
    x10753           c505                            1 c508                            2
    x10753           c511                            2 c516                            2
    x10753           c518                            1 c527                            3
    x10753           c529                            3
    x10754           OBJ                   1.06579e+09 c143                            4
    x10754           c205                            4 c206                            8
    x10754           c250                            6 c257                            5
    x10754           c270                            3 c271                            5
    x10754           c277                            2 c278                            3
    x10754           c291                            3 c292                            4
    x10754           c297                            8 c309                            3
    x10754           c310                            6 c339                            6
    x10754           c341                            5 c345                            1
    x10754           c353                            8 c359                           16
    x10754           c361                            6 c362                            2
    x10754           c384                            2 c393                            2
    x10754           c399                            2 c407                            2
    x10754           c421                            2 c426                            2
    x10754           c451                            4 c455                            5
    x10754           c465                            4 c475                            5
    x10754           c478                            6 c486                            3
    x10754           c505                            2 c508                            2
    x10754           c511                            2 c516                            2
    x10754           c518                            2 c527                            5
    x10754           c529                            3
    x10755           OBJ                   1.38827e+09 c143                            4
    x10755           c205                            4 c206                            8
    x10755           c250                            6 c257                            5
    x10755           c270                            3 c271                            5
    x10755           c277                            2 c278                            3
    x10755           c291                            3 c292                            4
    x10755           c297                           11 c309                            3
    x10755           c310                            6 c339                            6
    x10755           c341                            5 c345                            1
    x10755           c353                           11 c359                           21
    x10755           c361                            6 c362                            2
    x10755           c384                            2 c393                            2
    x10755           c399                            2 c407                            2
    x10755           c421                            2 c426                            2
    x10755           c451                            4 c455                            5
    x10755           c465                            6 c475                            5
    x10755           c478                            6 c486                            3
    x10755           c505                            2 c508                            2
    x10755           c511                            2 c516                            2
    x10755           c518                            2 c527                            5
    x10755           c529                            3
    x10724           OBJ                   1.94016e+08 c143                            1
    x10724           c205                            1 c206                            1
    x10724           c250                            1 c257                            1
    x10724           c270                            1 c271                            1
    x10724           c277                            1 c278                            1
    x10724           c291                            1 c292                            1
    x10724           c297                            1 c309                            1
    x10724           c310                            1 c339                            1
    x10724           c341                            1 c345                            1
    x10724           c353                            1 c359                            2
    x10724           c361                            1 c362                            2
    x10724           c384                            1 c393                            1
    x10724           c399                            2 c407                            1
    x10724           c421                            1 c426                            1
    x10724           c451                            1 c455                            2
    x10724           c465                            1 c475                            1
    x10724           c478                            1 c486                            1
    x10724           c505                            1 c508                            1
    x10724           c511                            2 c516                            1
    x10724           c518                            1 c527                            1
    x10724           c529                            1
    x10725           OBJ                    2.8645e+08 c143                            1
    x10725           c205                            1 c206                            2
    x10725           c250                            2 c257                            2
    x10725           c270                            1 c271                            2
    x10725           c277                            1 c278                            2
    x10725           c291                            1 c292                            2
    x10725           c297                            2 c309                            1
    x10725           c310                            2 c339                            2
    x10725           c341                            2 c345                            2
    x10725           c353                            2 c359                            4
    x10725           c361                            2 c362                            2
    x10725           c384                            1 c393                            1
    x10725           c399                            2 c407                            1
    x10725           c421                            1 c426                            1
    x10725           c451                            2 c455                            3
    x10725           c465                            1 c475                            2
    x10725           c478                            2 c486                            1
    x10725           c505                            1 c508                            1
    x10725           c511                            2 c516                            1
    x10725           c518                            1 c527                            2
    x10725           c529                            2
    MARK0001  'MARKER'                 'INTEND'
RHS
    RHS1              c143                            0
    RHS1              c205                            0
    RHS1              c206                            0
    RHS1              c250                            0
    RHS1              c257                            0
    RHS1              c270                            0
    RHS1              c271                            0
    RHS1              c277                            0
    RHS1              c278                            0
    RHS1              c291                            0
    RHS1              c292                            0
    RHS1              c297                            0
    RHS1              c309                            0
    RHS1              c310                            0
    RHS1              c339                            0
    RHS1              c341                            0
    RHS1              c345                            0
    RHS1              c353                            0
    RHS1              c359                            0
    RHS1              c361                            0
    RHS1              c362                            0
    RHS1              c384                            0
    RHS1              c393                            0
    RHS1              c399                            0
    RHS1              c407                            0
    RHS1              c421                            0
    RHS1              c426                            0
    RHS1              c451                            0
    RHS1              c455                            0
    RHS1              c465                            0
    RHS1              c475                            0
    RHS1              c478                            0
    RHS1              c486                            0
    RHS1              c505                            0
    RHS1              c508                            0
    RHS1              c511                            0
    RHS1              c516                            0
    RHS1              c518                            0
    RHS1              c527                            0
    RHS1              c529                            0
BOUNDS
 BV BND1              x10740
 BV BND1              x10741
 BV BND1              x10742
 BV BND1              x10743
 BV BND1              x10744
 BV BND1              x10745
 BV BND1              x10746
 BV BND1              x10747
 BV BND1              x10748
 BV BND1              x10749
 BV BND1              x10750
 BV BND1              x10751
 BV BND1              x10752
 BV BND1              x10753
 BV BND1              x10754
 BV BND1              x10755
 BV BND1              x10724
 BV BND1              x10725
ENDATA
