NAME          net12_ds
OBJSENSE
 MIN
ROWS
 N  OBJ
 L  R13478
 L  R13479
 L  R13480
 L  R13481
 L  R13482
 L  R13483
 L  R13484
 L  R13485
 L  R13486
 L  R13487
 L  R13488
 L  R13489
 L  R13490
 L  R13491
 L  R13492
 L  R13493
 E  R0001
 E  R0002
 E  R0003
 E  R0004
 E  R0005
 E  R0006
 E  R0007
 E  R0008
 E  R0009
 E  R0010
 E  R0011
 E  R0012
 E  R0013
 E  R0014
 E  R0015
 E  R0016
 E  R0017
 E  R0018
 E  R0024
 E  R0025
 E  R0026
 E  R0027
 E  R0028
 E  R0029
COLUMNS
    MARK0000  'MARKER'                 'INTORG'
    C12513           OBJ                             0 R13478                          1
    C12513           R13479                          1 R13480                          1
    C12513           R13481                          1 R13482                          1
    C12513           R13483                          1 R13484                          1
    C12513           R13485                          1 R13486                          1
    C12513           R13487                          1 R13488                          1
    C12513           R13489                          1 R13490                          1
    C12513           R13491                          1 R13492                          1
    C12513           R13493                          1 R0001                           1
    C12513           R0024                          -1
    C12514           OBJ                             0 R13478                          3
    C12514           R13479                          3 R13480                          3
    C12514           R13481                          3 R13482                          3
    C12514           R13483                          3 R13484                          3
    C12514           R13485                          3 R13486                          3
    C12514           R13487                          3 R13488                          3
    C12514           R13489                          3 R13490                          3
    C12514           R13491                          3 R13492                          3
    C12514           R13493                          3 R0002                           1
    C12514           R0025                          -1
    C12515           OBJ                             0 R13478                          1
    C12515           R13479                          1 R13480                          1
    C12515           R13481                          1 R13482                          1
    C12515           R13483                          1 R13484                          1
    C12515           R13485                          1 R13486                          1
    C12515           R13487                          1 R13488                          1
    C12515           R13489                          1 R13490                          1
    C12515           R13491                          1 R13492                          1
    C12515           R13493                          1 R0003                           1
    C12515           R0026                          -1
    C12516           OBJ                             0 R13478                          3
    C12516           R13479                          3 R13480                          3
    C12516           R13481                          3 R13482                          3
    C12516           R13483                          3 R13484                          3
    C12516           R13485                          3 R13486                          3
    C12516           R13487                          3 R13488                          3
    C12516           R13489                          3 R13490                          3
    C12516           R13491                          3 R13492                          3
    C12516           R13493                          3 R0004                           1
    C12516           R0027                          -1
    C12517           OBJ                             0 R13478                          2
    C12517           R13479                          2 R13480                          2
    C12517           R13481                          2 R13482                          2
    C12517           R13483                          2 R13484                          2
    C12517           R13485                          2 R13486                          2
    C12517           R13487                          2 R13488                          2
    C12517           R13489                          2 R13490                          2
    C12517           R13491                          2 R13492                          2
    C12517           R13493                          2 R0005                           1
    C12517           R0028                          -1
    C12518           OBJ                             0 R13478                          2
    C12518           R13479                          2 R13480                          2
    C12518           R13481                          2 R13482                          2
    C12518           R13483                          2 R13484                          2
    C12518           R13485                          2 R13486                          2
    C12518           R13487                          2 R13488                          2
    C12518           R13489                          2 R13490                          2
    C12518           R13491                          2 R13492                          2
    C12518           R13493                          2 R0006                           1
    C12518           R0029                          -1
    C12519           OBJ                             0 R13478                          3
    C12519           R13479                          3 R13480                          3
    C12519           R13481                          3 R13482                          3
    C12519           R13483                          3 R13484                          3
    C12519           R13485                          3 R13486                          3
    C12519           R13487                          3 R13488                          3
    C12519           R13489                          3 R13490                          3
    C12519           R13491                          3 R13492                          3
    C12519           R13493                          3 R0007                           1
    C12520           OBJ                             0 R13478                          2
    C12520           R13479                          2 R13480                          2
    C12520           R13481                          2 R13482                          2
    C12520           R13483                          2 R13484                          2
    C12520           R13485                          2 R13486                          2
    C12520           R13487                          2 R13488                          2
    C12520           R13489                          2 R13490                          2
    C12520           R13491                          2 R13492                          2
    C12520           R13493                          2 R0008                           1
    C12521           OBJ                             0 R13478                          3
    C12521           R13479                          3 R13480                          3
    C12521           R13481                          3 R13482                          3
    C12521           R13483                          3 R13484                          3
    C12521           R13485                          3 R13486                          3
    C12521           R13487                          3 R13488                          3
    C12521           R13489                          3 R13490                          3
    C12521           R13491                          3 R13492                          3
    C12521           R13493                          3 R0009                           1
    C12522           OBJ                             0 R13478                          1
    C12522           R13479                          1 R13480                          1
    C12522           R13481                          1 R13482                          1
    C12522           R13483                          1 R13484                          1
    C12522           R13485                          1 R13486                          1
    C12522           R13487                          1 R13488                          1
    C12522           R13489                          1 R13490                          1
    C12522           R13491                          1 R13492                          1
    C12522           R13493                          1 R0010                           1
    C12523           OBJ                             0 R13478                          1
    C12523           R13479                          1 R13480                          1
    C12523           R13481                          1 R13482                          1
    C12523           R13483                          1 R13484                          1
    C12523           R13485                          1 R13486                          1
    C12523           R13487                          1 R13488                          1
    C12523           R13489                          1 R13490                          1
    C12523           R13491                          1 R13492                          1
    C12523           R13493                          1 R0011                           1
    C12524           OBJ                             0 R13478                          1
    C12524           R13479                          1 R13480                          1
    C12524           R13481                          1 R13482                          1
    C12524           R13483                          1 R13484                          1
    C12524           R13485                          1 R13486                          1
    C12524           R13487                          1 R13488                          1
    C12524           R13489                          1 R13490                          1
    C12524           R13491                          1 R13492                          1
    C12524           R13493                          1 R0012                           1
    C12525           OBJ                             0 R13478                          1
    C12525           R13479                          1 R13480                          1
    C12525           R13481                          1 R13482                          1
    C12525           R13483                          1 R13484                          1
    C12525           R13485                          1 R13486                          1
    C12525           R13487                          1 R13488                          1
    C12525           R13489                          1 R13490                          1
    C12525           R13491                          1 R13492                          1
    C12525           R13493                          1 R0013                           1
    C12526           OBJ                             0 R13478                          1
    C12526           R13479                          1 R13480                          1
    C12526           R13481                          1 R13482                          1
    C12526           R13483                          1 R13484                          1
    C12526           R13485                          1 R13486                          1
    C12526           R13487                          1 R13488                          1
    C12526           R13489                          1 R13490                          1
    C12526           R13491                          1 R13492                          1
    C12526           R13493                          1 R0014                           1
    C12527           OBJ                             0 R13478                          2
    C12527           R13479                          2 R13480                          2
    C12527           R13481                          2 R13482                          2
    C12527           R13483                          2 R13484                          2
    C12527           R13485                          2 R13486                          2
    C12527           R13487                          2 R13488                          2
    C12527           R13489                          2 R13490                          2
    C12527           R13491                          2 R13492                          2
    C12527           R13493                          2 R0015                           1
    C12528           OBJ                             0 R13478                          3
    C12528           R13479                          3 R13480                          3
    C12528           R13481                          3 R13482                          3
    C12528           R13483                          3 R13484                          3
    C12528           R13485                          3 R13486                          3
    C12528           R13487                          3 R13488                          3
    C12528           R13489                          3 R13490                          3
    C12528           R13491                          3 R13492                          3
    C12528           R13493                          3 R0016                           1
    C12529           OBJ                             0 R13478                          3
    C12529           R13479                          3 R13480                          3
    C12529           R13481                          3 R13482                          3
    C12529           R13483                          3 R13484                          3
    C12529           R13485                          3 R13486                          3
    C12529           R13487                          3 R13488                          3
    C12529           R13489                          3 R13490                          3
    C12529           R13491                          3 R13492                          3
    C12529           R13493                          3 R0017                           1
    C12530           OBJ                             0 R13478                          3
    C12530           R13479                          3 R13480                          3
    C12530           R13481                          3 R13482                          3
    C12530           R13483                          3 R13484                          3
    C12530           R13485                          3 R13486                          3
    C12530           R13487                          3 R13488                          3
    C12530           R13489                          3 R13490                          3
    C12530           R13491                          3 R13492                          3
    C12530           R13493                          3 R0018                           1
    MARK0001  'MARKER'                 'INTEND'
RHS
    RHS1              R13478                          0
    RHS1              R13479                          0
    RHS1              R13480                          0
    RHS1              R13481                          0
    RHS1              R13482                          0
    RHS1              R13483                          0
    RHS1              R13484                          0
    RHS1              R13485                          0
    RHS1              R13486                          0
    RHS1              R13487                          0
    RHS1              R13488                          0
    RHS1              R13489                          0
    RHS1              R13490                          0
    RHS1              R13491                          0
    RHS1              R13492                          0
    RHS1              R13493                          0
    RHS1              R0001                           0
    RHS1              R0002                           0
    RHS1              R0003                           0
    RHS1              R0004                           0
    RHS1              R0005                           0
    RHS1              R0006                           0
    RHS1              R0007                           0
    RHS1              R0008                           0
    RHS1              R0009                           0
    RHS1              R0010                           0
    RHS1              R0011                           0
    RHS1              R0012                           0
    RHS1              R0013                           0
    RHS1              R0014                           0
    RHS1              R0015                           0
    RHS1              R0016                           0
    RHS1              R0017                           0
    RHS1              R0018                           0
    RHS1              R0024                           0
    RHS1              R0025                           0
    RHS1              R0026                           0
    RHS1              R0027                           0
    RHS1              R0028                           0
    RHS1              R0029                           0
BOUNDS
 BV BND1              C12513
 BV BND1              C12514
 BV BND1              C12515
 BV BND1              C12516
 BV BND1              C12517
 BV BND1              C12518
 BV BND1              C12519
 BV BND1              C12520
 BV BND1              C12521
 BV BND1              C12522
 BV BND1              C12523
 BV BND1              C12524
 BV BND1              C12525
 BV BND1              C12526
 BV BND1              C12527
 BV BND1              C12528
 BV BND1              C12529
 BV BND1              C12530
ENDATA
