NAME          sing44_ds
OBJSENSE
 MIN
ROWS
 N  OBJ
 E  R50913
 E  R50948
 E  R50983
 E  R51018
 E  R51053
 E  R51088
 E  R51125
 E  R51162
 E  R51199
 E  R51236
 E  R51273
 E  R51310
 E  R51347
 E  R51384
 E  R51421
 E  R51458
 E  R51495
 E  R51532
 E  R51569
 E  R51606
 E  R51643
 E  R51680
 E  R51717
 E  R51754
 E  R51791
 E  R51828
 E  R51865
 E  R51902
 E  R51939
 E  R51975
 E  R52011
 E  R52047
 E  R52083
 E  R52119
 E  R52155
 E  R52191
 E  R52227
 E  R52263
 E  R52299
 E  R52335
COLUMNS
    MARK0000  'MARKER'                 'INTORG'
    C50164           OBJ                   1.53683e+06 R50913                          1
    C50164           R50948                          1 R50983                          1
    C50164           R51018                          1 R51053                          1
    C50164           R51088                          1 R51125                          1
    C50164           R51162                          1 R51199                          1
    C50164           R51236                          1 R51273                          1
    C50164           R51310                          1 R51347                          1
    C50164           R51384                          1 R51421                          1
    C50164           R51458                          1 R51495                          1
    C50164           R51532                          1 R51569                          1
    C50164           R51606                          1 R51643                          1
    C50164           R51680                          1 R51717                          1
    C50164           R51754                          1 R51791                          1
    C50164           R51828                          1 R51865                          1
    C50164           R51902                          1 R51939                          1
    C50164           R51975                          1 R52011                          1
    C50164           R52047                          1 R52083                          1
    C50164           R52119                          1 R52155                          1
    C50164           R52191                          1 R52227                          1
    C50164           R52263                          1 R52299                          1
    C50164           R52335                          1
    C50196           OBJ                   1.53683e+06 R50913                          1
    C50196           R50948                          1 R50983                          1
    C50196           R51018                          1 R51053                          1
    C50196           R51088                          1 R51125                          1
    C50196           R51162                          1 R51199                          1
    C50196           R51236                          1 R51273                          1
    C50196           R51310                          1 R51347                          1
    C50196           R51384                          1 R51421                          1
    C50196           R51458                          1 R51495                          1
    C50196           R51532                          1 R51569                          1
    C50196           R51606                          1 R51643                          1
    C50196           R51680                          1 R51717                          1
    C50196           R51754                          1 R51791                          1
    C50196           R51828                          1 R51865                          1
    C50196           R51902                          1 R51939                          1
    C50196           R51975                          1 R52011                          1
    C50196           R52047                          1 R52083                          1
    C50196           R52119                          1 R52155                          1
    C50196           R52191                          1 R52227                          1
    C50196           R52263                          1 R52299                          1
    C50196           R52335                          1
    C50229           OBJ                   1.53683e+06 R50913                          1
    C50229           R50948                          1 R50983                          1
    C50229           R51018                          1 R51053                          1
    C50229           R51088                          1 R51125                          1
    C50229           R51162                          1 R51199                          1
    C50229           R51236                          1 R51273                          1
    C50229           R51310                          1 R51347                          1
    C50229           R51384                          1 R51421                          1
    C50229           R51458                          1 R51495                          1
    C50229           R51532                          1 R51569                          1
    C50229           R51606                          1 R51643                          1
    C50229           R51680                          1 R51717                          1
    C50229           R51754                          1 R51791                          1
    C50229           R51828                          1 R51865                          1
    C50229           R51902                          1 R51939                          1
    C50229           R51975                          1 R52011                          1
    C50229           R52047                          1 R52083                          1
    C50229           R52119                          1 R52155                          1
    C50229           R52191                          1 R52227                          1
    C50229           R52263                          1 R52299                          1
    C50229           R52335                          1
    C50262           OBJ                   1.53683e+06 R50913                          1
    C50262           R50948                          1 R50983                          1
    C50262           R51018                          1 R51053                          1
    C50262           R51088                          1 R51125                          1
    C50262           R51162                          1 R51199                          1
    C50262           R51236                          1 R51273                          1
    C50262           R51310                          1 R51347                          1
    C50262           R51384                          1 R51421                          1
    C50262           R51458                          1 R51495                          1
    C50262           R51532                          1 R51569                          1
    C50262           R51606                          1 R51643                          1
    C50262           R51680                          1 R51717                          1
    C50262           R51754                          1 R51791                          1
    C50262           R51828                          1 R51865                          1
    C50262           R51902                          1 R51939                          1
    C50262           R51975                          1 R52011                          1
    C50262           R52047                          1 R52083                          1
    C50262           R52119                          1 R52155                          1
    C50262           R52191                          1 R52227                          1
    C50262           R52263                          1 R52299                          1
    C50262           R52335                          1
    C50296           OBJ                   1.53683e+06 R50913                          1
    C50296           R50948                          1 R50983                          1
    C50296           R51018                          1 R51053                          1
    C50296           R51088                          1 R51125                          1
    C50296           R51162                          1 R51199                          1
    C50296           R51236                          1 R51273                          1
    C50296           R51310                          1 R51347                          1
    C50296           R51384                          1 R51421                          1
    C50296           R51458                          1 R51495                          1
    C50296           R51532                          1 R51569                          1
    C50296           R51606                          1 R51643                          1
    C50296           R51680                          1 R51717                          1
    C50296           R51754                          1 R51791                          1
    C50296           R51828                          1 R51865                          1
    C50296           R51902                          1 R51939                          1
    C50296           R51975                          1 R52011                          1
    C50296           R52047                          1 R52083                          1
    C50296           R52119                          1 R52155                          1
    C50296           R52191                          1 R52227                          1
    C50296           R52263                          1 R52299                          1
    C50296           R52335                          1
    C50330           OBJ                   1.53683e+06 R50913                          1
    C50330           R50948                          1 R50983                          1
    C50330           R51018                          1 R51053                          1
    C50330           R51088                          1 R51125                          1
    C50330           R51162                          1 R51199                          1
    C50330           R51236                          1 R51273                          1
    C50330           R51310                          1 R51347                          1
    C50330           R51384                          1 R51421                          1
    C50330           R51458                          1 R51495                          1
    C50330           R51532                          1 R51569                          1
    C50330           R51606                          1 R51643                          1
    C50330           R51680                          1 R51717                          1
    C50330           R51754                          1 R51791                          1
    C50330           R51828                          1 R51865                          1
    C50330           R51902                          1 R51939                          1
    C50330           R51975                          1 R52011                          1
    C50330           R52047                          1 R52083                          1
    C50330           R52119                          1 R52155                          1
    C50330           R52191                          1 R52227                          1
    C50330           R52263                          1 R52299                          1
    C50330           R52335                          1
    C50364           OBJ                   1.53683e+06 R50913                          1
    C50364           R50948                          1 R50983                          1
    C50364           R51018                          1 R51053                          1
    C50364           R51088                          1 R51125                          1
    C50364           R51162                          1 R51199                          1
    C50364           R51236                          1 R51273                          1
    C50364           R51310                          1 R51347                          1
    C50364           R51384                          1 R51421                          1
    C50364           R51458                          1 R51495                          1
    C50364           R51532                          1 R51569                          1
    C50364           R51606                          1 R51643                          1
    C50364           R51680                          1 R51717                          1
    C50364           R51754                          1 R51791                          1
    C50364           R51828                          1 R51865                          1
    C50364           R51902                          1 R51939                          1
    C50364           R51975                          1 R52011                          1
    C50364           R52047                          1 R52083                          1
    C50364           R52119                          1 R52155                          1
    C50364           R52191                          1 R52227                          1
    C50364           R52263                          1 R52299                          1
    C50364           R52335                          1
    C50398           OBJ                   1.53683e+06 R50913                          1
    C50398           R50948                          1 R50983                          1
    C50398           R51018                          1 R51053                          1
    C50398           R51088                          1 R51125                          1
    C50398           R51162                          1 R51199                          1
    C50398           R51236                          1 R51273                          1
    C50398           R51310                          1 R51347                          1
    C50398           R51384                          1 R51421                          1
    C50398           R51458                          1 R51495                          1
    C50398           R51532                          1 R51569                          1
    C50398           R51606                          1 R51643                          1
    C50398           R51680                          1 R51717                          1
    C50398           R51754                          1 R51791                          1
    C50398           R51828                          1 R51865                          1
    C50398           R51902                          1 R51939                          1
    C50398           R51975                          1 R52011                          1
    C50398           R52047                          1 R52083                          1
    C50398           R52119                          1 R52155                          1
    C50398           R52191                          1 R52227                          1
    C50398           R52263                          1 R52299                          1
    C50398           R52335                          1
    C50432           OBJ                   1.53683e+06 R50913                          1
    C50432           R50948                          1 R50983                          1
    C50432           R51018                          1 R51053                          1
    C50432           R51088                          1 R51125                          1
    C50432           R51162                          1 R51199                          1
    C50432           R51236                          1 R51273                          1
    C50432           R51310                          1 R51347                          1
    C50432           R51384                          1 R51421                          1
    C50432           R51458                          1 R51495                          1
    C50432           R51532                          1 R51569                          1
    C50432           R51606                          1 R51643                          1
    C50432           R51680                          1 R51717                          1
    C50432           R51754                          1 R51791                          1
    C50432           R51828                          1 R51865                          1
    C50432           R51902                          1 R51939                          1
    C50432           R51975                          1 R52011                          1
    C50432           R52047                          1 R52083                          1
    C50432           R52119                          1 R52155                          1
    C50432           R52191                          1 R52227                          1
    C50432           R52263                          1 R52299                          1
    C50432           R52335                          1
    C50466           OBJ                   1.53683e+06 R50913                          1
    C50466           R50948                          1 R50983                          1
    C50466           R51018                          1 R51053                          1
    C50466           R51088                          1 R51125                          1
    C50466           R51162                          1 R51199                          1
    C50466           R51236                          1 R51273                          1
    C50466           R51310                          1 R51347                          1
    C50466           R51384                          1 R51421                          1
    C50466           R51458                          1 R51495                          1
    C50466           R51532                          1 R51569                          1
    C50466           R51606                          1 R51643                          1
    C50466           R51680                          1 R51717                          1
    C50466           R51754                          1 R51791                          1
    C50466           R51828                          1 R51865                          1
    C50466           R51902                          1 R51939                          1
    C50466           R51975                          1 R52011                          1
    C50466           R52047                          1 R52083                          1
    C50466           R52119                          1 R52155                          1
    C50466           R52191                          1 R52227                          1
    C50466           R52263                          1 R52299                          1
    C50466           R52335                          1
    C50500           OBJ                   1.53683e+06 R50913                          1
    C50500           R50948                          1 R50983                          1
    C50500           R51018                          1 R51053                          1
    C50500           R51088                          1 R51125                          1
    C50500           R51162                          1 R51199                          1
    C50500           R51236                          1 R51273                          1
    C50500           R51310                          1 R51347                          1
    C50500           R51384                          1 R51421                          1
    C50500           R51458                          1 R51495                          1
    C50500           R51532                          1 R51569                          1
    C50500           R51606                          1 R51643                          1
    C50500           R51680                          1 R51717                          1
    C50500           R51754                          1 R51791                          1
    C50500           R51828                          1 R51865                          1
    C50500           R51902                          1 R51939                          1
    C50500           R51975                          1 R52011                          1
    C50500           R52047                          1 R52083                          1
    C50500           R52119                          1 R52155                          1
    C50500           R52191                          1 R52227                          1
    C50500           R52263                          1 R52299                          1
    C50500           R52335                          1
    C50534           OBJ                   1.53683e+06 R50913                          1
    C50534           R50948                          1 R50983                          1
    C50534           R51018                          1 R51053                          1
    C50534           R51088                          1 R51125                          1
    C50534           R51162                          1 R51199                          1
    C50534           R51236                          1 R51273                          1
    C50534           R51310                          1 R51347                          1
    C50534           R51384                          1 R51421                          1
    C50534           R51458                          1 R51495                          1
    C50534           R51532                          1 R51569                          1
    C50534           R51606                          1 R51643                          1
    C50534           R51680                          1 R51717                          1
    C50534           R51754                          1 R51791                          1
    C50534           R51828                          1 R51865                          1
    C50534           R51902                          1 R51939                          1
    C50534           R51975                          1 R52011                          1
    C50534           R52047                          1 R52083                          1
    C50534           R52119                          1 R52155                          1
    C50534           R52191                          1 R52227                          1
    C50534           R52263                          1 R52299                          1
    C50534           R52335                          1
    C50568           OBJ                   1.53683e+06 R50913                          1
    C50568           R50948                          1 R50983                          1
    C50568           R51018                          1 R51053                          1
    C50568           R51088                          1 R51125                          1
    C50568           R51162                          1 R51199                          1
    C50568           R51236                          1 R51273                          1
    C50568           R51310                          1 R51347                          1
    C50568           R51384                          1 R51421                          1
    C50568           R51458                          1 R51495                          1
    C50568           R51532                          1 R51569                          1
    C50568           R51606                          1 R51643                          1
    C50568           R51680                          1 R51717                          1
    C50568           R51754                          1 R51791                          1
    C50568           R51828                          1 R51865                          1
    C50568           R51902                          1 R51939                          1
    C50568           R51975                          1 R52011                          1
    C50568           R52047                          1 R52083                          1
    C50568           R52119                          1 R52155                          1
    C50568           R52191                          1 R52227                          1
    C50568           R52263                          1 R52299                          1
    C50568           R52335                          1
    C50602           OBJ                   1.53683e+06 R50913                          1
    C50602           R50948                          1 R50983                          1
    C50602           R51018                          1 R51053                          1
    C50602           R51088                          1 R51125                          1
    C50602           R51162                          1 R51199                          1
    C50602           R51236                          1 R51273                          1
    C50602           R51310                          1 R51347                          1
    C50602           R51384                          1 R51421                          1
    C50602           R51458                          1 R51495                          1
    C50602           R51532                          1 R51569                          1
    C50602           R51606                          1 R51643                          1
    C50602           R51680                          1 R51717                          1
    C50602           R51754                          1 R51791                          1
    C50602           R51828                          1 R51865                          1
    C50602           R51902                          1 R51939                          1
    C50602           R51975                          1 R52011                          1
    C50602           R52047                          1 R52083                          1
    C50602           R52119                          1 R52155                          1
    C50602           R52191                          1 R52227                          1
    C50602           R52263                          1 R52299                          1
    C50602           R52335                          1
    C50636           OBJ                   1.53683e+06 R50913                          1
    C50636           R50948                          1 R50983                          1
    C50636           R51018                          1 R51053                          1
    C50636           R51088                          1 R51125                          1
    C50636           R51162                          1 R51199                          1
    C50636           R51236                          1 R51273                          1
    C50636           R51310                          1 R51347                          1
    C50636           R51384                          1 R51421                          1
    C50636           R51458                          1 R51495                          1
    C50636           R51532                          1 R51569                          1
    C50636           R51606                          1 R51643                          1
    C50636           R51680                          1 R51717                          1
    C50636           R51754                          1 R51791                          1
    C50636           R51828                          1 R51865                          1
    C50636           R51902                          1 R51939                          1
    C50636           R51975                          1 R52011                          1
    C50636           R52047                          1 R52083                          1
    C50636           R52119                          1 R52155                          1
    C50636           R52191                          1 R52227                          1
    C50636           R52263                          1 R52299                          1
    C50636           R52335                          1
    C50670           OBJ                   1.53683e+06 R50913                          1
    C50670           R50948                          1 R50983                          1
    C50670           R51018                          1 R51053                          1
    C50670           R51088                          1 R51125                          1
    C50670           R51162                          1 R51199                          1
    C50670           R51236                          1 R51273                          1
    C50670           R51310                          1 R51347                          1
    C50670           R51384                          1 R51421                          1
    C50670           R51458                          1 R51495                          1
    C50670           R51532                          1 R51569                          1
    C50670           R51606                          1 R51643                          1
    C50670           R51680                          1 R51717                          1
    C50670           R51754                          1 R51791                          1
    C50670           R51828                          1 R51865                          1
    C50670           R51902                          1 R51939                          1
    C50670           R51975                          1 R52011                          1
    C50670           R52047                          1 R52083                          1
    C50670           R52119                          1 R52155                          1
    C50670           R52191                          1 R52227                          1
    C50670           R52263                          1 R52299                          1
    C50670           R52335                          1
    C50704           OBJ                   1.53683e+06 R50913                          1
    C50704           R50948                          1 R50983                          1
    C50704           R51018                          1 R51053                          1
    C50704           R51088                          1 R51125                          1
    C50704           R51162                          1 R51199                          1
    C50704           R51236                          1 R51273                          1
    C50704           R51310                          1 R51347                          1
    C50704           R51384                          1 R51421                          1
    C50704           R51458                          1 R51495                          1
    C50704           R51532                          1 R51569                          1
    C50704           R51606                          1 R51643                          1
    C50704           R51680                          1 R51717                          1
    C50704           R51754                          1 R51791                          1
    C50704           R51828                          1 R51865                          1
    C50704           R51902                          1 R51939                          1
    C50704           R51975                          1 R52011                          1
    C50704           R52047                          1 R52083                          1
    C50704           R52119                          1 R52155                          1
    C50704           R52191                          1 R52227                          1
    C50704           R52263                          1 R52299                          1
    C50704           R52335                          1
    C50738           OBJ                   1.53683e+06 R50913                          1
    C50738           R50948                          1 R50983                          1
    C50738           R51018                          1 R51053                          1
    C50738           R51088                          1 R51125                          1
    C50738           R51162                          1 R51199                          1
    C50738           R51236                          1 R51273                          1
    C50738           R51310                          1 R51347                          1
    C50738           R51384                          1 R51421                          1
    C50738           R51458                          1 R51495                          1
    C50738           R51532                          1 R51569                          1
    C50738           R51606                          1 R51643                          1
    C50738           R51680                          1 R51717                          1
    C50738           R51754                          1 R51791                          1
    C50738           R51828                          1 R51865                          1
    C50738           R51902                          1 R51939                          1
    C50738           R51975                          1 R52011                          1
    C50738           R52047                          1 R52083                          1
    C50738           R52119                          1 R52155                          1
    C50738           R52191                          1 R52227                          1
    C50738           R52263                          1 R52299                          1
    C50738           R52335                          1
    MARK0001  'MARKER'                 'INTEND'
RHS
    RHS1              R50913                          0
    RHS1              R50948                          0
    RHS1              R50983                          0
    RHS1              R51018                          0
    RHS1              R51053                          0
    RHS1              R51088                          0
    RHS1              R51125                          0
    RHS1              R51162                          0
    RHS1              R51199                          0
    RHS1              R51236                          0
    RHS1              R51273                          0
    RHS1              R51310                          0
    RHS1              R51347                          0
    RHS1              R51384                          0
    RHS1              R51421                          0
    RHS1              R51458                          0
    RHS1              R51495                          0
    RHS1              R51532                          0
    RHS1              R51569                          0
    RHS1              R51606                          0
    RHS1              R51643                          0
    RHS1              R51680                          0
    RHS1              R51717                          0
    RHS1              R51754                          0
    RHS1              R51791                          0
    RHS1              R51828                          0
    RHS1              R51865                          0
    RHS1              R51902                          0
    RHS1              R51939                          0
    RHS1              R51975                          0
    RHS1              R52011                          0
    RHS1              R52047                          0
    RHS1              R52083                          0
    RHS1              R52119                          0
    RHS1              R52155                          0
    RHS1              R52191                          0
    RHS1              R52227                          0
    RHS1              R52263                          0
    RHS1              R52299                          0
    RHS1              R52335                          0
BOUNDS
 BV BND1              C50164
 BV BND1              C50196
 BV BND1              C50229
 BV BND1              C50262
 BV BND1              C50296
 BV BND1              C50330
 BV BND1              C50364
 BV BND1              C50398
 BV BND1              C50432
 BV BND1              C50466
 BV BND1              C50500
 BV BND1              C50534
 BV BND1              C50568
 BV BND1              C50602
 BV BND1              C50636
 BV BND1              C50670
 BV BND1              C50704
 BV BND1              C50738
ENDATA
