NAME          roi5alpha10n8_ds
OBJSENSE
 MIN
ROWS
 N  OBJ
 G  sdef_10106
 G  sdef_10160
 G  sdef_10168
 G  sdef_10394
 G  sdef_10415
 G  sdef_10534
 G  sdef_10773
 G  sdef_10836
 G  sdef_10887
 G  sdef_11098
 G  sdef_11102
 G  sdef_11437
 G  sdef_11449
 G  sdef_11619
 G  sdef_1242
 G  sdef_1252
 G  sdef_1261
 G  sdef_1873
 G  sdef_223
 G  sdef_2277
 G  sdef_2407
 G  sdef_2418
 G  sdef_2424
 G  sdef_2428
 G  sdef_2429
 G  sdef_2430
 G  sdef_2431
 G  sdef_2435
 G  sdef_2453
COLUMNS
    MARK0000  'MARKER'                 'INTORG'
    z_319_674        OBJ                             0 sdef_10106                  14000
    z_319_674        sdef_10160                   1462 sdef_10168                    261
    z_319_674        sdef_10394                  79251 sdef_10534                  44257
    z_319_674        sdef_10773                   1528 sdef_10836                    139
    z_319_674        sdef_11098                   1825 sdef_11102                  32054
    z_319_674        sdef_11619                      1 sdef_1252                     208
    z_319_674        sdef_1261                   11409 sdef_223                    23642
    z_319_674        sdef_2277                   77665 sdef_2407                   15845
    z_319_674        sdef_2418                    2122 sdef_2424                   18856
    z_319_674        sdef_2428                    7219 sdef_2429                    3832
    z_319_674        sdef_2430                    5828 sdef_2431                   26084
    z_319_674        sdef_2435                    1488 sdef_2453                   10214
    z_319_675        OBJ                             0 sdef_10106                  17062
    z_319_675        sdef_10160                   3542 sdef_10168                    375
    z_319_675        sdef_10394                 101996 sdef_10534                  39928
    z_319_675        sdef_10773                    773 sdef_10836                    130
    z_319_675        sdef_11098                   2133 sdef_11102                  41775
    z_319_675        sdef_1252                     412 sdef_1261                   23767
    z_319_675        sdef_223                    22208 sdef_2277                   43321
    z_319_675        sdef_2407                    6212 sdef_2418                     789
    z_319_675        sdef_2424                   12104 sdef_2428                    4518
    z_319_675        sdef_2429                    2568 sdef_2430                    4655
    z_319_675        sdef_2431                   27008 sdef_2435                    1658
    z_319_675        sdef_2453                   20142
    z_674_319        OBJ                             0 sdef_10106                  14000
    z_674_319        sdef_10160                   1462 sdef_10168                    261
    z_674_319        sdef_10394                  79251 sdef_10534                  44257
    z_674_319        sdef_10773                   1528 sdef_10836                    139
    z_674_319        sdef_11098                   1825 sdef_11102                  32054
    z_674_319        sdef_11619                      1 sdef_1252                     208
    z_674_319        sdef_1261                   11409 sdef_223                    23642
    z_674_319        sdef_2277                   77665 sdef_2407                   15845
    z_674_319        sdef_2418                    2122 sdef_2424                   18856
    z_674_319        sdef_2428                    7219 sdef_2429                    3832
    z_674_319        sdef_2430                    5828 sdef_2431                   26084
    z_674_319        sdef_2435                    1488 sdef_2453                   10214
    z_675_319        OBJ                             0 sdef_10106                  17062
    z_675_319        sdef_10160                   3542 sdef_10168                    375
    z_675_319        sdef_10394                 101996 sdef_10534                  39928
    z_675_319        sdef_10773                    773 sdef_10836                    130
    z_675_319        sdef_11098                   2133 sdef_11102                  41775
    z_675_319        sdef_1252                     412 sdef_1261                   23767
    z_675_319        sdef_223                    22208 sdef_2277                   43321
    z_675_319        sdef_2407                    6212 sdef_2418                     789
    z_675_319        sdef_2424                   12104 sdef_2428                    4518
    z_675_319        sdef_2429                    2568 sdef_2430                    4655
    z_675_319        sdef_2431                   27008 sdef_2435                    1658
    z_675_319        sdef_2453                   20142
    z_319_676        OBJ                             0 sdef_10106                  21144
    z_319_676        sdef_10160                   9660 sdef_10168                    469
    z_319_676        sdef_10394                  72945 sdef_10534                  33803
    z_319_676        sdef_10773                    458 sdef_10836                    132
    z_319_676        sdef_10887                      1 sdef_11098                   2711
    z_319_676        sdef_11102                  22450 sdef_11449                      1
    z_319_676        sdef_1252                     999 sdef_1261                   38732
    z_319_676        sdef_1873                       1 sdef_223                    17289
    z_319_676        sdef_2277                   22629 sdef_2407                    2184
    z_319_676        sdef_2418                     359 sdef_2424                    8073
    z_319_676        sdef_2428                    3040 sdef_2429                    1859
    z_319_676        sdef_2430                    3886 sdef_2431                   27501
    z_319_676        sdef_2435                    2005 sdef_2453                   38568
    z_319_689        OBJ                             0 sdef_10106                   1703
    z_319_689        sdef_10160                    964 sdef_10168                   1261
    z_319_689        sdef_10394                   9456 sdef_10534                   3649
    z_319_689        sdef_10773                    101 sdef_10836                     13
    z_319_689        sdef_11098                    225 sdef_11102                   9787
    z_319_689        sdef_1252                      90 sdef_1261                    3969
    z_319_689        sdef_223                     2423 sdef_2277                    4788
    z_319_689        sdef_2407                    2761 sdef_2418                     147
    z_319_689        sdef_2424                    1250 sdef_2428                     484
    z_319_689        sdef_2429                     269 sdef_2430                     454
    z_319_689        sdef_2431                    2519 sdef_2435                     171
    z_319_689        sdef_2453                    2592
    z_345_647        OBJ                             0 sdef_10106                   2442
    z_345_647        sdef_10160                    171 sdef_10168                     85
    z_345_647        sdef_10394                   4840 sdef_10534                   6160
    z_345_647        sdef_10773                    997 sdef_10836                    136
    z_345_647        sdef_11098                    878 sdef_11102                   3165
    z_345_647        sdef_1252                      34 sdef_1261                     888
    z_345_647        sdef_223                     2207 sdef_2277                    7602
    z_345_647        sdef_2407                    4499 sdef_2418                    1011
    z_345_647        sdef_2424                    5407 sdef_2428                    3229
    z_345_647        sdef_2429                    2179 sdef_2430                    3054
    z_345_647        sdef_2431                    5311 sdef_2435                     865
    z_345_647        sdef_2453                     877
    z_347_647        OBJ                             0 sdef_10106                   4204
    z_347_647        sdef_10160                    881 sdef_10168                    301
    z_347_647        sdef_10394                   9912 sdef_10534                   6841
    z_347_647        sdef_10773                    390 sdef_10836                    149
    z_347_647        sdef_11098                   1409 sdef_11102                   8630
    z_347_647        sdef_1252                     133 sdef_1261                    3562
    z_347_647        sdef_223                     2706 sdef_2277                    4907
    z_347_647        sdef_2407                    1707 sdef_2418                     249
    z_347_647        sdef_2424                    3449 sdef_2428                    1894
    z_347_647        sdef_2429                    1390 sdef_2430                    2620
    z_347_647        sdef_2431                    7146 sdef_2435                    1282
    z_347_647        sdef_2453                    3041
    z_647_345        OBJ                             0 sdef_10106                   2442
    z_647_345        sdef_10160                    171 sdef_10168                     85
    z_647_345        sdef_10394                   4840 sdef_10534                   6160
    z_647_345        sdef_10773                    997 sdef_10836                    136
    z_647_345        sdef_11098                    878 sdef_11102                   3165
    z_647_345        sdef_1252                      34 sdef_1261                     888
    z_647_345        sdef_223                     2207 sdef_2277                    7602
    z_647_345        sdef_2407                    4499 sdef_2418                    1011
    z_647_345        sdef_2424                    5407 sdef_2428                    3229
    z_647_345        sdef_2429                    2179 sdef_2430                    3054
    z_647_345        sdef_2431                    5311 sdef_2435                     865
    z_647_345        sdef_2453                     877
    z_647_347        OBJ                             0 sdef_10106                   4204
    z_647_347        sdef_10160                    881 sdef_10168                    301
    z_647_347        sdef_10394                   9912 sdef_10534                   6841
    z_647_347        sdef_10773                    390 sdef_10836                    149
    z_647_347        sdef_11098                   1409 sdef_11102                   8630
    z_647_347        sdef_1252                     133 sdef_1261                    3562
    z_647_347        sdef_223                     2706 sdef_2277                    4907
    z_647_347        sdef_2407                    1707 sdef_2418                     249
    z_647_347        sdef_2424                    3449 sdef_2428                    1894
    z_647_347        sdef_2429                    1390 sdef_2430                    2620
    z_647_347        sdef_2431                    7146 sdef_2435                    1282
    z_647_347        sdef_2453                    3041
    z_676_319        OBJ                             0 sdef_10106                  21144
    z_676_319        sdef_10160                   9660 sdef_10168                    469
    z_676_319        sdef_10394                  72945 sdef_10534                  33803
    z_676_319        sdef_10773                    458 sdef_10836                    132
    z_676_319        sdef_10887                      1 sdef_11098                   2711
    z_676_319        sdef_11102                  22450 sdef_11449                      1
    z_676_319        sdef_1252                     999 sdef_1261                   38732
    z_676_319        sdef_1873                       1 sdef_223                    17289
    z_676_319        sdef_2277                   22629 sdef_2407                    2184
    z_676_319        sdef_2418                     359 sdef_2424                    8073
    z_676_319        sdef_2428                    3040 sdef_2429                    1859
    z_676_319        sdef_2430                    3886 sdef_2431                   27501
    z_676_319        sdef_2435                    2005 sdef_2453                   38568
    z_689_319        OBJ                             0 sdef_10106                   1703
    z_689_319        sdef_10160                    964 sdef_10168                   1261
    z_689_319        sdef_10394                   9456 sdef_10534                   3649
    z_689_319        sdef_10773                    101 sdef_10836                     13
    z_689_319        sdef_11098                    225 sdef_11102                   9787
    z_689_319        sdef_1252                      90 sdef_1261                    3969
    z_689_319        sdef_223                     2423 sdef_2277                    4788
    z_689_319        sdef_2407                    2761 sdef_2418                     147
    z_689_319        sdef_2424                    1250 sdef_2428                     484
    z_689_319        sdef_2429                     269 sdef_2430                     454
    z_689_319        sdef_2431                    2519 sdef_2435                     171
    z_689_319        sdef_2453                    2592
    z_319_690        OBJ                             0 sdef_10106                   1630
    z_319_690        sdef_10160                   1528 sdef_10168                   1564
    z_319_690        sdef_10394                   6589 sdef_10534                   2666
    z_319_690        sdef_10773                     54 sdef_10836                     11
    z_319_690        sdef_11098                    224 sdef_11102                   5561
    z_319_690        sdef_1252                     143 sdef_1261                    4471
    z_319_690        sdef_223                     1683 sdef_2277                    2594
    z_319_690        sdef_2407                    1154 sdef_2418                      67
    z_319_690        sdef_2424                     759 sdef_2428                     292
    z_319_690        sdef_2429                     171 sdef_2430                     324
    z_319_690        sdef_2431                    2095 sdef_2435                     165
    z_319_690        sdef_2453                    3077
    z_647_675        OBJ                             0 sdef_10106                  14028
    z_647_675        sdef_10160                   1655 sdef_10168                    131
    z_647_675        sdef_10394                  31178 sdef_10415                      1
    z_647_675        sdef_10534                  23584 sdef_10773                   1104
    z_647_675        sdef_10836                    500 sdef_10887                      1
    z_647_675        sdef_11098                   4604 sdef_11102                  12749
    z_647_675        sdef_1242                       1 sdef_1252                     301
    z_647_675        sdef_1261                    8318 sdef_223                     8304
    z_647_675        sdef_2277                   14839 sdef_2407                    2090
    z_647_675        sdef_2418                     568 sdef_2424                   11125
    z_647_675        sdef_2428                    5996 sdef_2429                    4460
    z_647_675        sdef_2430                    8766 sdef_2431                   24556
    z_647_675        sdef_2435                    4223 sdef_2453                    8683
    z_675_647        OBJ                             0 sdef_10106                  14028
    z_675_647        sdef_10160                   1655 sdef_10168                    131
    z_675_647        sdef_10394                  31178 sdef_10415                      1
    z_675_647        sdef_10534                  23584 sdef_10773                   1104
    z_675_647        sdef_10836                    500 sdef_10887                      1
    z_675_647        sdef_11098                   4604 sdef_11102                  12749
    z_675_647        sdef_1242                       1 sdef_1252                     301
    z_675_647        sdef_1261                    8318 sdef_223                     8304
    z_675_647        sdef_2277                   14839 sdef_2407                    2090
    z_675_647        sdef_2418                     568 sdef_2424                   11125
    z_675_647        sdef_2428                    5996 sdef_2429                    4460
    z_675_647        sdef_2430                    8766 sdef_2431                   24556
    z_675_647        sdef_2435                    4223 sdef_2453                    8683
    z_690_319        OBJ                             0 sdef_10106                   1630
    z_690_319        sdef_10160                   1528 sdef_10168                   1564
    z_690_319        sdef_10394                   6589 sdef_10534                   2666
    z_690_319        sdef_10773                     54 sdef_10836                     11
    z_690_319        sdef_11098                    224 sdef_11102                   5561
    z_690_319        sdef_1252                     143 sdef_1261                    4471
    z_690_319        sdef_223                     1683 sdef_2277                    2594
    z_690_319        sdef_2407                    1154 sdef_2418                      67
    z_690_319        sdef_2424                     759 sdef_2428                     292
    z_690_319        sdef_2429                     171 sdef_2430                     324
    z_690_319        sdef_2431                    2095 sdef_2435                     165
    z_690_319        sdef_2453                    3077
    z_291_319        OBJ                             0 sdef_10106                    678
    z_291_319        sdef_10160                    468 sdef_10168                   1025
    z_291_319        sdef_10394                   3400 sdef_10534                   1404
    z_291_319        sdef_10773                     43 sdef_10836                      5
    z_291_319        sdef_11098                     92 sdef_11102                   3531
    z_291_319        sdef_11437                      1 sdef_1252                      45
    z_291_319        sdef_1261                    1626 sdef_223                      960
    z_291_319        sdef_2277                    1892 sdef_2407                    1306
    z_291_319        sdef_2418                      67 sdef_2424                     497
    z_291_319        sdef_2428                     195 sdef_2429                     108
    z_291_319        sdef_2430                     179 sdef_2431                     981
    z_291_319        sdef_2435                      69 sdef_2453                    1065
    z_318_676        OBJ                             0 sdef_10106                   5707
    z_318_676        sdef_10160                   3073 sdef_10168                    239
    z_318_676        sdef_10394                  38551 sdef_10534                  17204
    z_318_676        sdef_10773                    765 sdef_10836                     58
    z_318_676        sdef_11098                    710 sdef_11102                  12936
    z_318_676        sdef_1252                     258 sdef_1261                   15869
    z_318_676        sdef_223                    10189 sdef_2277                   20280
    z_318_676        sdef_2407                    1939 sdef_2418                     631
    z_318_676        sdef_2424                   12037 sdef_2428                    4758
    z_318_676        sdef_2429                    2276 sdef_2430                    2876
    z_318_676        sdef_2431                    9114 sdef_2435                     572
    z_318_676        sdef_2453                   12096
    MARK0001  'MARKER'                 'INTEND'
RHS
    RHS1              sdef_10106                      0
    RHS1              sdef_10160                      0
    RHS1              sdef_10168                      0
    RHS1              sdef_10394                      0
    RHS1              sdef_10415                      0
    RHS1              sdef_10534                      0
    RHS1              sdef_10773                      0
    RHS1              sdef_10836                      0
    RHS1              sdef_10887                      0
    RHS1              sdef_11098                      0
    RHS1              sdef_11102                      0
    RHS1              sdef_11437                      0
    RHS1              sdef_11449                      0
    RHS1              sdef_11619                      0
    RHS1              sdef_1242                       0
    RHS1              sdef_1252                       0
    RHS1              sdef_1261                       0
    RHS1              sdef_1873                       0
    RHS1              sdef_223                        0
    RHS1              sdef_2277                       0
    RHS1              sdef_2407                       0
    RHS1              sdef_2418                       0
    RHS1              sdef_2424                       0
    RHS1              sdef_2428                       0
    RHS1              sdef_2429                       0
    RHS1              sdef_2430                       0
    RHS1              sdef_2431                       0
    RHS1              sdef_2435                       0
    RHS1              sdef_2453                       0
BOUNDS
 BV BND1              z_319_674
 BV BND1              z_319_675
 BV BND1              z_674_319
 BV BND1              z_675_319
 BV BND1              z_319_676
 BV BND1              z_319_689
 BV BND1              z_345_647
 BV BND1              z_347_647
 BV BND1              z_647_345
 BV BND1              z_647_347
 BV BND1              z_676_319
 BV BND1              z_689_319
 BV BND1              z_319_690
 BV BND1              z_647_675
 BV BND1              z_675_647
 BV BND1              z_690_319
 BV BND1              z_291_319
 BV BND1              z_318_676
ENDATA
