NAME          seymour_ds
OBJSENSE
 MIN
ROWS
 N  OBJ
 G  c4635
 G  c4636
 G  c4297
 G  c4298
 G  c4608
 G  c4610
 G  c4611
 G  c4615
 G  c4637
 G  c4609
 G  c4612
 G  c4613
 G  c4614
 G  c4616
 G  c4624
 G  c4625
 G  c4628
 G  c4258
 G  c4259
 G  c4260
 G  c4261
 G  c4288
 G  c4290
 G  c4291
 G  c4293
 G  c4294
 G  c4303
 G  c4304
 G  c4535
 G  c4539
 G  c4593
 G  c4594
 G  c4595
 G  c4596
 G  c4597
 G  c4598
 G  c4599
 G  c4600
 G  c4602
 G  c4626
COLUMNS
    MARK0000  'MARKER'                 'INTORG'
    x550             OBJ                             1
    x686             OBJ                             1
    x486             OBJ                             1
    x1187            OBJ                             1 c4635                           1
    x1187            c4636                           1 c4297                           1
    x1187            c4298                           1 c4608                           1
    x1187            c4610                           1 c4611                           1
    x1187            c4615                           1 c4637                           1
    x1187            c4609                           1 c4612                           1
    x1187            c4613                           1 c4614                           1
    x1187            c4616                           1 c4624                           1
    x1187            c4625                           1 c4628                           1
    x1187            c4258                           1 c4259                           1
    x1187            c4260                           1 c4261                           1
    x1187            c4288                           1 c4535                           1
    x1187            c4539                           1 c4600                           1
    x1187            c4602                           1 c4626                           1
    x631             OBJ                             1 c4635                           1
    x631             c4636                           1 c4297                           1
    x631             c4298                           1 c4608                           1
    x631             c4610                           1 c4611                           1
    x631             c4615                           1 c4637                           1
    x631             c4609                           1 c4612                           1
    x631             c4613                           1 c4614                           1
    x631             c4616                           1 c4624                           1
    x631             c4625                           1 c4628                           1
    x631             c4258                           1 c4259                           1
    x631             c4260                           1 c4261                           1
    x631             c4288                           1 c4290                           1
    x631             c4291                           1 c4293                           1
    x631             c4294                           1 c4303                           1
    x631             c4304                           1 c4535                           1
    x631             c4539                           1 c4593                           1
    x631             c4594                           1 c4595                           1
    x631             c4596                           1 c4597                           1
    x631             c4598                           1 c4599                           1
    x631             c4600                           1 c4602                           1
    x631             c4626                           1
    x1274            OBJ                             1 c4635                           1
    x1274            c4636                           1 c4608                           1
    x1274            c4610                           1 c4611                           1
    x1274            c4615                           1 c4637                           1
    x1274            c4609                           1 c4612                           1
    x1274            c4613                           1 c4614                           1
    x1274            c4616                           1 c4624                           1
    x1274            c4625                           1 c4628                           1
    x1274            c4535                           1 c4539                           1
    x1274            c4593                           1 c4594                           1
    x1274            c4595                           1 c4596                           1
    x1274            c4597                           1 c4598                           1
    x1274            c4599                           1 c4600                           1
    x1274            c4602                           1 c4626                           1
    x547             OBJ                             1
    x809             OBJ                             1
    x1184            OBJ                             1 c4635                           1
    x1184            c4636                           1 c4297                           1
    x1184            c4298                           1 c4608                           1
    x1184            c4610                           1 c4611                           1
    x1184            c4615                           1 c4637                           1
    x1184            c4609                           1 c4612                           1
    x1184            c4613                           1 c4614                           1
    x1184            c4616                           1 c4624                           1
    x1184            c4625                           1 c4628                           1
    x1184            c4258                           1 c4259                           1
    x1184            c4260                           1 c4261                           1
    x1184            c4290                           1 c4291                           1
    x1184            c4293                           1 c4294                           1
    x1184            c4303                           1 c4304                           1
    x1184            c4600                           1 c4602                           1
    x1184            c4626                           1
    x543             OBJ                             1
    x1217            OBJ                             1 c4635                           1
    x1217            c4636                           1 c4297                           1
    x1217            c4298                           1 c4608                           1
    x1217            c4610                           1 c4611                           1
    x1217            c4615                           1 c4624                           1
    x1217            c4625                           1 c4628                           1
    x1217            c4258                           1 c4259                           1
    x1217            c4260                           1 c4261                           1
    x1217            c4290                           1 c4291                           1
    x1217            c4293                           1 c4294                           1
    x1217            c4303                           1 c4304                           1
    x1217            c4535                           1 c4539                           1
    x1217            c4600                           1 c4602                           1
    x537             OBJ                             1
    x623             OBJ                             1 c4635                           1
    x623             c4636                           1 c4297                           1
    x623             c4298                           1 c4608                           1
    x623             c4610                           1 c4611                           1
    x623             c4615                           1 c4637                           1
    x623             c4609                           1 c4612                           1
    x623             c4613                           1 c4614                           1
    x623             c4616                           1 c4624                           1
    x623             c4625                           1 c4628                           1
    x623             c4288                           1 c4290                           1
    x623             c4291                           1 c4293                           1
    x623             c4294                           1 c4303                           1
    x623             c4304                           1 c4593                           1
    x623             c4594                           1 c4595                           1
    x623             c4596                           1 c4597                           1
    x623             c4598                           1 c4599                           1
    x623             c4600                           1 c4602                           1
    x623             c4626                           1
    x624             OBJ                             1 c4635                           1
    x624             c4636                           1 c4297                           1
    x624             c4298                           1 c4608                           1
    x624             c4610                           1 c4611                           1
    x624             c4615                           1 c4637                           1
    x624             c4609                           1 c4612                           1
    x624             c4613                           1 c4614                           1
    x624             c4616                           1 c4288                           1
    x624             c4290                           1 c4291                           1
    x624             c4293                           1 c4294                           1
    x624             c4303                           1 c4304                           1
    x624             c4593                           1 c4594                           1
    x624             c4595                           1 c4596                           1
    x624             c4597                           1 c4598                           1
    x624             c4599                           1
    x632             OBJ                             1 c4635                           1
    x632             c4636                           1 c4297                           1
    x632             c4298                           1 c4608                           1
    x632             c4610                           1 c4611                           1
    x632             c4615                           1 c4637                           1
    x632             c4609                           1 c4612                           1
    x632             c4613                           1 c4614                           1
    x632             c4616                           1 c4258                           1
    x632             c4259                           1 c4260                           1
    x632             c4261                           1 c4288                           1
    x632             c4290                           1 c4291                           1
    x632             c4293                           1 c4294                           1
    x632             c4303                           1 c4304                           1
    x632             c4535                           1 c4539                           1
    x632             c4593                           1 c4594                           1
    x632             c4595                           1 c4596                           1
    x632             c4597                           1 c4598                           1
    x632             c4599                           1
    x1193            OBJ                             1 c4635                           1
    x1193            c4636                           1 c4297                           1
    x1193            c4298                           1 c4637                           1
    x1193            c4624                           1 c4625                           1
    x1193            c4628                           1 c4258                           1
    x1193            c4259                           1 c4260                           1
    x1193            c4261                           1 c4288                           1
    x1193            c4535                           1 c4539                           1
    x1193            c4593                           1 c4594                           1
    x1193            c4595                           1 c4596                           1
    x1193            c4597                           1 c4598                           1
    x1193            c4599                           1 c4626                           1
    x752             OBJ                             1
    x539             OBJ                             1
    MARK0001  'MARKER'                 'INTEND'
RHS
    RHS1              c4635                           0
    RHS1              c4636                           0
    RHS1              c4297                           0
    RHS1              c4298                           0
    RHS1              c4608                           0
    RHS1              c4610                           0
    RHS1              c4611                           0
    RHS1              c4615                           0
    RHS1              c4637                           0
    RHS1              c4609                           0
    RHS1              c4612                           0
    RHS1              c4613                           0
    RHS1              c4614                           0
    RHS1              c4616                           0
    RHS1              c4624                           0
    RHS1              c4625                           0
    RHS1              c4628                           0
    RHS1              c4258                           0
    RHS1              c4259                           0
    RHS1              c4260                           0
    RHS1              c4261                           0
    RHS1              c4288                           0
    RHS1              c4290                           0
    RHS1              c4291                           0
    RHS1              c4293                           0
    RHS1              c4294                           0
    RHS1              c4303                           0
    RHS1              c4304                           0
    RHS1              c4535                           0
    RHS1              c4539                           0
    RHS1              c4593                           0
    RHS1              c4594                           0
    RHS1              c4595                           0
    RHS1              c4596                           0
    RHS1              c4597                           0
    RHS1              c4598                           0
    RHS1              c4599                           0
    RHS1              c4600                           0
    RHS1              c4602                           0
    RHS1              c4626                           0
BOUNDS
 BV BND1              x550
 BV BND1              x686
 BV BND1              x486
 BV BND1              x1187
 BV BND1              x631
 BV BND1              x1274
 BV BND1              x547
 BV BND1              x809
 BV BND1              x1184
 BV BND1              x543
 BV BND1              x1217
 BV BND1              x537
 BV BND1              x623
 BV BND1              x624
 BV BND1              x632
 BV BND1              x1193
 BV BND1              x752
 BV BND1              x539
ENDATA
