NAME          sing326_ds
OBJSENSE
 MIN
ROWS
 N  OBJ
 E  R47186
 E  R47221
 E  R47256
 E  R47291
 E  R47326
 E  R47361
 E  R47397
 E  R47433
 E  R47469
 E  R47505
 E  R47541
 E  R47577
 E  R47613
 E  R47649
 E  R47685
 E  R47721
 E  R47757
 E  R47793
 E  R47829
 E  R47865
 E  R47901
 E  R47937
 E  R47973
 E  R48009
 E  R48045
 E  R48081
 E  R48117
 E  R48153
 E  R48189
 E  R48223
 E  R48256
 E  R48289
 E  R48322
 E  R48355
 E  R48388
 E  R48421
 E  R48454
 E  R48487
 E  R48520
 E  R48553
COLUMNS
    MARK0000  'MARKER'                 'INTORG'
    C46446           OBJ                   1.53683e+06 R47186                          1
    C46446           R47221                          1 R47256                          1
    C46446           R47291                          1 R47326                          1
    C46446           R47361                          1 R47397                          1
    C46446           R47433                          1 R47469                          1
    C46446           R47505                          1 R47541                          1
    C46446           R47577                          1 R47613                          1
    C46446           R47649                          1 R47685                          1
    C46446           R47721                          1 R47757                          1
    C46446           R47793                          1 R47829                          1
    C46446           R47865                          1 R47901                          1
    C46446           R47937                          1 R47973                          1
    C46446           R48009                          1 R48045                          1
    C46446           R48081                          1 R48117                          1
    C46446           R48153                          1 R48189                          1
    C46446           R48223                          1 R48256                          1
    C46446           R48289                          1 R48322                          1
    C46446           R48355                          1 R48388                          1
    C46446           R48421                          1 R48454                          1
    C46446           R48487                          1 R48520                          1
    C46446           R48553                          1
    C46475           OBJ                   1.53683e+06 R47186                          1
    C46475           R47221                          1 R47256                          1
    C46475           R47291                          1 R47326                          1
    C46475           R47361                          1 R47397                          1
    C46475           R47433                          1 R47469                          1
    C46475           R47505                          1 R47541                          1
    C46475           R47577                          1 R47613                          1
    C46475           R47649                          1 R47685                          1
    C46475           R47721                          1 R47757                          1
    C46475           R47793                          1 R47829                          1
    C46475           R47865                          1 R47901                          1
    C46475           R47937                          1 R47973                          1
    C46475           R48009                          1 R48045                          1
    C46475           R48081                          1 R48117                          1
    C46475           R48153                          1 R48189                          1
    C46475           R48223                          1 R48256                          1
    C46475           R48289                          1 R48322                          1
    C46475           R48355                          1 R48388                          1
    C46475           R48421                          1 R48454                          1
    C46475           R48487                          1 R48520                          1
    C46475           R48553                          1
    C46505           OBJ                   1.53683e+06 R47186                          1
    C46505           R47221                          1 R47256                          1
    C46505           R47291                          1 R47326                          1
    C46505           R47361                          1 R47397                          1
    C46505           R47433                          1 R47469                          1
    C46505           R47505                          1 R47541                          1
    C46505           R47577                          1 R47613                          1
    C46505           R47649                          1 R47685                          1
    C46505           R47721                          1 R47757                          1
    C46505           R47793                          1 R47829                          1
    C46505           R47865                          1 R47901                          1
    C46505           R47937                          1 R47973                          1
    C46505           R48009                          1 R48045                          1
    C46505           R48081                          1 R48117                          1
    C46505           R48153                          1 R48189                          1
    C46505           R48223                          1 R48256                          1
    C46505           R48289                          1 R48322                          1
    C46505           R48355                          1 R48388                          1
    C46505           R48421                          1 R48454                          1
    C46505           R48487                          1 R48520                          1
    C46505           R48553                          1
    C46537           OBJ                   1.53683e+06 R47186                          1
    C46537           R47221                          1 R47256                          1
    C46537           R47291                          1 R47326                          1
    C46537           R47361                          1 R47397                          1
    C46537           R47433                          1 R47469                          1
    C46537           R47505                          1 R47541                          1
    C46537           R47577                          1 R47613                          1
    C46537           R47649                          1 R47685                          1
    C46537           R47721                          1 R47757                          1
    C46537           R47793                          1 R47829                          1
    C46537           R47865                          1 R47901                          1
    C46537           R47937                          1 R47973                          1
    C46537           R48009                          1 R48045                          1
    C46537           R48081                          1 R48117                          1
    C46537           R48153                          1 R48189                          1
    C46537           R48223                          1 R48256                          1
    C46537           R48289                          1 R48322                          1
    C46537           R48355                          1 R48388                          1
    C46537           R48421                          1 R48454                          1
    C46537           R48487                          1 R48520                          1
    C46537           R48553                          1
    C46569           OBJ                   1.53683e+06 R47186                          1
    C46569           R47221                          1 R47256                          1
    C46569           R47291                          1 R47326                          1
    C46569           R47361                          1 R47397                          1
    C46569           R47433                          1 R47469                          1
    C46569           R47505                          1 R47541                          1
    C46569           R47577                          1 R47613                          1
    C46569           R47649                          1 R47685                          1
    C46569           R47721                          1 R47757                          1
    C46569           R47793                          1 R47829                          1
    C46569           R47865                          1 R47901                          1
    C46569           R47937                          1 R47973                          1
    C46569           R48009                          1 R48045                          1
    C46569           R48081                          1 R48117                          1
    C46569           R48153                          1 R48189                          1
    C46569           R48223                          1 R48256                          1
    C46569           R48289                          1 R48322                          1
    C46569           R48355                          1 R48388                          1
    C46569           R48421                          1 R48454                          1
    C46569           R48487                          1 R48520                          1
    C46569           R48553                          1
    C46601           OBJ                   1.53683e+06 R47186                          1
    C46601           R47221                          1 R47256                          1
    C46601           R47291                          1 R47326                          1
    C46601           R47361                          1 R47397                          1
    C46601           R47433                          1 R47469                          1
    C46601           R47505                          1 R47541                          1
    C46601           R47577                          1 R47613                          1
    C46601           R47649                          1 R47685                          1
    C46601           R47721                          1 R47757                          1
    C46601           R47793                          1 R47829                          1
    C46601           R47865                          1 R47901                          1
    C46601           R47937                          1 R47973                          1
    C46601           R48009                          1 R48045                          1
    C46601           R48081                          1 R48117                          1
    C46601           R48153                          1 R48189                          1
    C46601           R48223                          1 R48256                          1
    C46601           R48289                          1 R48322                          1
    C46601           R48355                          1 R48388                          1
    C46601           R48421                          1 R48454                          1
    C46601           R48487                          1 R48520                          1
    C46601           R48553                          1
    C46633           OBJ                   1.53683e+06 R47186                          1
    C46633           R47221                          1 R47256                          1
    C46633           R47291                          1 R47326                          1
    C46633           R47361                          1 R47397                          1
    C46633           R47433                          1 R47469                          1
    C46633           R47505                          1 R47541                          1
    C46633           R47577                          1 R47613                          1
    C46633           R47649                          1 R47685                          1
    C46633           R47721                          1 R47757                          1
    C46633           R47793                          1 R47829                          1
    C46633           R47865                          1 R47901                          1
    C46633           R47937                          1 R47973                          1
    C46633           R48009                          1 R48045                          1
    C46633           R48081                          1 R48117                          1
    C46633           R48153                          1 R48189                          1
    C46633           R48223                          1 R48256                          1
    C46633           R48289                          1 R48322                          1
    C46633           R48355                          1 R48388                          1
    C46633           R48421                          1 R48454                          1
    C46633           R48487                          1 R48520                          1
    C46633           R48553                          1
    C46666           OBJ                   1.53683e+06 R47186                          1
    C46666           R47221                          1 R47256                          1
    C46666           R47291                          1 R47326                          1
    C46666           R47361                          1 R47397                          1
    C46666           R47433                          1 R47469                          1
    C46666           R47505                          1 R47541                          1
    C46666           R47577                          1 R47613                          1
    C46666           R47649                          1 R47685                          1
    C46666           R47721                          1 R47757                          1
    C46666           R47793                          1 R47829                          1
    C46666           R47865                          1 R47901                          1
    C46666           R47937                          1 R47973                          1
    C46666           R48009                          1 R48045                          1
    C46666           R48081                          1 R48117                          1
    C46666           R48153                          1 R48189                          1
    C46666           R48223                          1 R48256                          1
    C46666           R48289                          1 R48322                          1
    C46666           R48355                          1 R48388                          1
    C46666           R48421                          1 R48454                          1
    C46666           R48487                          1 R48520                          1
    C46666           R48553                          1
    C46699           OBJ                   1.53683e+06 R47186                          1
    C46699           R47221                          1 R47256                          1
    C46699           R47291                          1 R47326                          1
    C46699           R47361                          1 R47397                          1
    C46699           R47433                          1 R47469                          1
    C46699           R47505                          1 R47541                          1
    C46699           R47577                          1 R47613                          1
    C46699           R47649                          1 R47685                          1
    C46699           R47721                          1 R47757                          1
    C46699           R47793                          1 R47829                          1
    C46699           R47865                          1 R47901                          1
    C46699           R47937                          1 R47973                          1
    C46699           R48009                          1 R48045                          1
    C46699           R48081                          1 R48117                          1
    C46699           R48153                          1 R48189                          1
    C46699           R48223                          1 R48256                          1
    C46699           R48289                          1 R48322                          1
    C46699           R48355                          1 R48388                          1
    C46699           R48421                          1 R48454                          1
    C46699           R48487                          1 R48520                          1
    C46699           R48553                          1
    C46732           OBJ                   1.53683e+06 R47186                          1
    C46732           R47221                          1 R47256                          1
    C46732           R47291                          1 R47326                          1
    C46732           R47361                          1 R47397                          1
    C46732           R47433                          1 R47469                          1
    C46732           R47505                          1 R47541                          1
    C46732           R47577                          1 R47613                          1
    C46732           R47649                          1 R47685                          1
    C46732           R47721                          1 R47757                          1
    C46732           R47793                          1 R47829                          1
    C46732           R47865                          1 R47901                          1
    C46732           R47937                          1 R47973                          1
    C46732           R48009                          1 R48045                          1
    C46732           R48081                          1 R48117                          1
    C46732           R48153                          1 R48189                          1
    C46732           R48223                          1 R48256                          1
    C46732           R48289                          1 R48322                          1
    C46732           R48355                          1 R48388                          1
    C46732           R48421                          1 R48454                          1
    C46732           R48487                          1 R48520                          1
    C46732           R48553                          1
    C46765           OBJ                   1.53683e+06 R47186                          1
    C46765           R47221                          1 R47256                          1
    C46765           R47291                          1 R47326                          1
    C46765           R47361                          1 R47397                          1
    C46765           R47433                          1 R47469                          1
    C46765           R47505                          1 R47541                          1
    C46765           R47577                          1 R47613                          1
    C46765           R47649                          1 R47685                          1
    C46765           R47721                          1 R47757                          1
    C46765           R47793                          1 R47829                          1
    C46765           R47865                          1 R47901                          1
    C46765           R47937                          1 R47973                          1
    C46765           R48009                          1 R48045                          1
    C46765           R48081                          1 R48117                          1
    C46765           R48153                          1 R48189                          1
    C46765           R48223                          1 R48256                          1
    C46765           R48289                          1 R48322                          1
    C46765           R48355                          1 R48388                          1
    C46765           R48421                          1 R48454                          1
    C46765           R48487                          1 R48520                          1
    C46765           R48553                          1
    C46798           OBJ                   1.53683e+06 R47186                          1
    C46798           R47221                          1 R47256                          1
    C46798           R47291                          1 R47326                          1
    C46798           R47361                          1 R47397                          1
    C46798           R47433                          1 R47469                          1
    C46798           R47505                          1 R47541                          1
    C46798           R47577                          1 R47613                          1
    C46798           R47649                          1 R47685                          1
    C46798           R47721                          1 R47757                          1
    C46798           R47793                          1 R47829                          1
    C46798           R47865                          1 R47901                          1
    C46798           R47937                          1 R47973                          1
    C46798           R48009                          1 R48045                          1
    C46798           R48081                          1 R48117                          1
    C46798           R48153                          1 R48189                          1
    C46798           R48223                          1 R48256                          1
    C46798           R48289                          1 R48322                          1
    C46798           R48355                          1 R48388                          1
    C46798           R48421                          1 R48454                          1
    C46798           R48487                          1 R48520                          1
    C46798           R48553                          1
    C46831           OBJ                   1.53683e+06 R47186                          1
    C46831           R47221                          1 R47256                          1
    C46831           R47291                          1 R47326                          1
    C46831           R47361                          1 R47397                          1
    C46831           R47433                          1 R47469                          1
    C46831           R47505                          1 R47541                          1
    C46831           R47577                          1 R47613                          1
    C46831           R47649                          1 R47685                          1
    C46831           R47721                          1 R47757                          1
    C46831           R47793                          1 R47829                          1
    C46831           R47865                          1 R47901                          1
    C46831           R47937                          1 R47973                          1
    C46831           R48009                          1 R48045                          1
    C46831           R48081                          1 R48117                          1
    C46831           R48153                          1 R48189                          1
    C46831           R48223                          1 R48256                          1
    C46831           R48289                          1 R48322                          1
    C46831           R48355                          1 R48388                          1
    C46831           R48421                          1 R48454                          1
    C46831           R48487                          1 R48520                          1
    C46831           R48553                          1
    C46864           OBJ                   1.53683e+06 R47186                          1
    C46864           R47221                          1 R47256                          1
    C46864           R47291                          1 R47326                          1
    C46864           R47361                          1 R47397                          1
    C46864           R47433                          1 R47469                          1
    C46864           R47505                          1 R47541                          1
    C46864           R47577                          1 R47613                          1
    C46864           R47649                          1 R47685                          1
    C46864           R47721                          1 R47757                          1
    C46864           R47793                          1 R47829                          1
    C46864           R47865                          1 R47901                          1
    C46864           R47937                          1 R47973                          1
    C46864           R48009                          1 R48045                          1
    C46864           R48081                          1 R48117                          1
    C46864           R48153                          1 R48189                          1
    C46864           R48223                          1 R48256                          1
    C46864           R48289                          1 R48322                          1
    C46864           R48355                          1 R48388                          1
    C46864           R48421                          1 R48454                          1
    C46864           R48487                          1 R48520                          1
    C46864           R48553                          1
    C46897           OBJ                   1.53683e+06 R47186                          1
    C46897           R47221                          1 R47256                          1
    C46897           R47291                          1 R47326                          1
    C46897           R47361                          1 R47397                          1
    C46897           R47433                          1 R47469                          1
    C46897           R47505                          1 R47541                          1
    C46897           R47577                          1 R47613                          1
    C46897           R47649                          1 R47685                          1
    C46897           R47721                          1 R47757                          1
    C46897           R47793                          1 R47829                          1
    C46897           R47865                          1 R47901                          1
    C46897           R47937                          1 R47973                          1
    C46897           R48009                          1 R48045                          1
    C46897           R48081                          1 R48117                          1
    C46897           R48153                          1 R48189                          1
    C46897           R48223                          1 R48256                          1
    C46897           R48289                          1 R48322                          1
    C46897           R48355                          1 R48388                          1
    C46897           R48421                          1 R48454                          1
    C46897           R48487                          1 R48520                          1
    C46897           R48553                          1
    C46930           OBJ                   1.53683e+06 R47186                          1
    C46930           R47221                          1 R47256                          1
    C46930           R47291                          1 R47326                          1
    C46930           R47361                          1 R47397                          1
    C46930           R47433                          1 R47469                          1
    C46930           R47505                          1 R47541                          1
    C46930           R47577                          1 R47613                          1
    C46930           R47649                          1 R47685                          1
    C46930           R47721                          1 R47757                          1
    C46930           R47793                          1 R47829                          1
    C46930           R47865                          1 R47901                          1
    C46930           R47937                          1 R47973                          1
    C46930           R48009                          1 R48045                          1
    C46930           R48081                          1 R48117                          1
    C46930           R48153                          1 R48189                          1
    C46930           R48223                          1 R48256                          1
    C46930           R48289                          1 R48322                          1
    C46930           R48355                          1 R48388                          1
    C46930           R48421                          1 R48454                          1
    C46930           R48487                          1 R48520                          1
    C46930           R48553                          1
    C46963           OBJ                   1.53683e+06 R47186                          1
    C46963           R47221                          1 R47256                          1
    C46963           R47291                          1 R47326                          1
    C46963           R47361                          1 R47397                          1
    C46963           R47433                          1 R47469                          1
    C46963           R47505                          1 R47541                          1
    C46963           R47577                          1 R47613                          1
    C46963           R47649                          1 R47685                          1
    C46963           R47721                          1 R47757                          1
    C46963           R47793                          1 R47829                          1
    C46963           R47865                          1 R47901                          1
    C46963           R47937                          1 R47973                          1
    C46963           R48009                          1 R48045                          1
    C46963           R48081                          1 R48117                          1
    C46963           R48153                          1 R48189                          1
    C46963           R48223                          1 R48256                          1
    C46963           R48289                          1 R48322                          1
    C46963           R48355                          1 R48388                          1
    C46963           R48421                          1 R48454                          1
    C46963           R48487                          1 R48520                          1
    C46963           R48553                          1
    C46996           OBJ                   1.53683e+06 R47186                          1
    C46996           R47221                          1 R47256                          1
    C46996           R47291                          1 R47326                          1
    C46996           R47361                          1 R47397                          1
    C46996           R47433                          1 R47469                          1
    C46996           R47505                          1 R47541                          1
    C46996           R47577                          1 R47613                          1
    C46996           R47649                          1 R47685                          1
    C46996           R47721                          1 R47757                          1
    C46996           R47793                          1 R47829                          1
    C46996           R47865                          1 R47901                          1
    C46996           R47937                          1 R47973                          1
    C46996           R48009                          1 R48045                          1
    C46996           R48081                          1 R48117                          1
    C46996           R48153                          1 R48189                          1
    C46996           R48223                          1 R48256                          1
    C46996           R48289                          1 R48322                          1
    C46996           R48355                          1 R48388                          1
    C46996           R48421                          1 R48454                          1
    C46996           R48487                          1 R48520                          1
    C46996           R48553                          1
    MARK0001  'MARKER'                 'INTEND'
RHS
    RHS1              R47186                          0
    RHS1              R47221                          0
    RHS1              R47256                          0
    RHS1              R47291                          0
    RHS1              R47326                          0
    RHS1              R47361                          0
    RHS1              R47397                          0
    RHS1              R47433                          0
    RHS1              R47469                          0
    RHS1              R47505                          0
    RHS1              R47541                          0
    RHS1              R47577                          0
    RHS1              R47613                          0
    RHS1              R47649                          0
    RHS1              R47685                          0
    RHS1              R47721                          0
    RHS1              R47757                          0
    RHS1              R47793                          0
    RHS1              R47829                          0
    RHS1              R47865                          0
    RHS1              R47901                          0
    RHS1              R47937                          0
    RHS1              R47973                          0
    RHS1              R48009                          0
    RHS1              R48045                          0
    RHS1              R48081                          0
    RHS1              R48117                          0
    RHS1              R48153                          0
    RHS1              R48189                          0
    RHS1              R48223                          0
    RHS1              R48256                          0
    RHS1              R48289                          0
    RHS1              R48322                          0
    RHS1              R48355                          0
    RHS1              R48388                          0
    RHS1              R48421                          0
    RHS1              R48454                          0
    RHS1              R48487                          0
    RHS1              R48520                          0
    RHS1              R48553                          0
BOUNDS
 BV BND1              C46446
 BV BND1              C46475
 BV BND1              C46505
 BV BND1              C46537
 BV BND1              C46569
 BV BND1              C46601
 BV BND1              C46633
 BV BND1              C46666
 BV BND1              C46699
 BV BND1              C46732
 BV BND1              C46765
 BV BND1              C46798
 BV BND1              C46831
 BV BND1              C46864
 BV BND1              C46897
 BV BND1              C46930
 BV BND1              C46963
 BV BND1              C46996
ENDATA
