NAME          neos-3754480-nidda_ds
OBJSENSE
 MIN
ROWS
 N  OBJ
 L  R0001
 L  R0002
 G  R0003
 G  R0004
 G  R0005
 G  R0006
 G  R0007
 G  R0008
 G  R0009
 G  R0013
 G  R0014
 G  R0017
 G  R0018
 G  R0019
 G  R0020
 G  R0021
 G  R0022
 G  R0023
 G  R0024
 G  R0025
 G  R0053
 G  R0054
 G  R0055
 G  R0056
 G  R0057
 G  R0058
 G  R0059
 G  R0063
 G  R0064
 G  R0067
 G  R0068
 G  R0069
 G  R0070
 G  R0071
 G  R0072
 G  R0073
 G  R0074
 G  R0075
 L  R0103
 L  R0104
COLUMNS
    MARK0000  'MARKER'                 'INTORG'
    C0204            OBJ                   7.42833e+08 R0001                          15
    C0204            R0002                -3.88973e+06 R0003                -3.61977e+08
    C0204            R0053                 3.61977e+08 R0103                       10000
    C0205            OBJ                   2.70623e+08 R0001                          15
    C0205            R0002                -1.62531e+06 R0004                     -268088
    C0205            R0054                      268088 R0104                       10000
    C0206            OBJ                   5.30677e+08 R0001                          15
    C0206            R0002                -5.57822e+06 R0005                     -260958
    C0206            R0055                      260958
    C0207            OBJ                   1.68869e+09 R0001                         -85
    C0207            R0002                -1.44216e+07 R0006                     -128410
    C0207            R0056                      128410
    C0208            OBJ                   2.69727e+08 R0001                         -35
    C0208            R0002                -1.95153e+06 R0007                -2.21748e+08
    C0208            R0057                 2.21748e+08
    C0209            OBJ                   1.35634e+09 R0001                          15
    C0209            R0002                -4.45617e+06 R0008                -4.34743e+08
    C0209            R0058                 7.77073e+08
    C0210            OBJ                   5.85874e+08 R0001                          15
    C0210            R0002                -3.57827e+06 R0009                     -463830
    C0210            R0059                      463830
    C0214            OBJ                    6.8026e+08 R0001                         -85
    C0214            R0002                -1.04804e+07 R0013                -2.75406e+08
    C0214            R0063                 2.75406e+08
    C0215            OBJ                   3.23308e+08 R0001                          15
    C0215            R0002                -3.70936e+06 R0014                     -208462
    C0215            R0064                      208462
    C0218            OBJ                   1.87916e+08 R0001                          65
    C0218            R0002                     -308340 R0017                -4.03746e+07
    C0218            R0067                 4.03746e+07
    C0219            OBJ                   1.32015e+09 R0001                         -35
    C0219            R0002                -7.80038e+06 R0018                -5.07607e+07
    C0219            R0068                 5.07607e+07
    C0220            OBJ                   4.47448e+08 R0001                          15
    C0220            R0002                -3.03055e+06 R0019                     -210444
    C0220            R0069                      210444
    C0221            OBJ                   4.08664e+08 R0001                         -85
    C0221            R0002                -3.79664e+06 R0020                -2.60681e+08
    C0221            R0070                 2.60681e+08
    C0222            OBJ                   8.40791e+08 R0001                          15
    C0222            R0002                -4.85384e+06 R0021                     -171558
    C0222            R0071                      171558
    C0223            OBJ                   5.57064e+08 R0001                          15
    C0223            R0002                -5.12416e+06 R0022                     -226194
    C0223            R0072                      226194
    C0224            OBJ                   6.17449e+08 R0001                         -35
    C0224            R0002                 -6.3115e+06 R0023                -3.62304e+08
    C0224            R0073                 3.62304e+08
    C0225            OBJ                   1.47585e+08 R0001                          65
    C0225            R0002                     -848351 R0024                     -124370
    C0225            R0074                      124370
    C0226            OBJ                   5.28703e+08 R0001                          65
    C0226            R0002                     -984825 R0025                -9.96115e+06
    C0226            R0075                 9.96115e+06
    MARK0001  'MARKER'                 'INTEND'
RHS
    RHS1              R0001                           0
    RHS1              R0002                -9.57064e+07
    RHS1              R0003                -1.80989e+08
    RHS1              R0004                     -134044
    RHS1              R0005                     -130479
    RHS1              R0006                      -59417
    RHS1              R0007                -1.07791e+08
    RHS1              R0008                -1.99372e+08
    RHS1              R0009                     -231915
    RHS1              R0013                -1.37703e+08
    RHS1              R0014                     -104231
    RHS1              R0017                -1.85107e+07
    RHS1              R0018                -2.36824e+07
    RHS1              R0019                     -105222
    RHS1              R0020                -1.22861e+08
    RHS1              R0021                      -85779
    RHS1              R0022                     -113097
    RHS1              R0023                -1.81152e+08
    RHS1              R0024                      -62185
    RHS1              R0025                -4.69722e+06
    RHS1              R0053                 1.80989e+08
    RHS1              R0054                      134044
    RHS1              R0055                      130479
    RHS1              R0056                       59417
    RHS1              R0057                 1.07791e+08
    RHS1              R0058                 3.56364e+08
    RHS1              R0059                      231915
    RHS1              R0063                 1.37703e+08
    RHS1              R0064                      104231
    RHS1              R0067                 1.85107e+07
    RHS1              R0068                 2.36824e+07
    RHS1              R0069                      105222
    RHS1              R0070                 1.22861e+08
    RHS1              R0071                       85779
    RHS1              R0072                      113097
    RHS1              R0073                 1.81152e+08
    RHS1              R0074                       62185
    RHS1              R0075                 4.69722e+06
    RHS1              R0103                       10000
    RHS1              R0104                       10000
BOUNDS
 BV BND1              C0204
 BV BND1              C0205
 BV BND1              C0206
 BV BND1              C0207
 BV BND1              C0208
 BV BND1              C0209
 BV BND1              C0210
 BV BND1              C0214
 BV BND1              C0215
 BV BND1              C0218
 BV BND1              C0219
 BV BND1              C0220
 BV BND1              C0221
 BV BND1              C0222
 BV BND1              C0223
 BV BND1              C0224
 BV BND1              C0225
 BV BND1              C0226
ENDATA
