NAME          physiciansched6-2_ds
OBJSENSE
 MIN
ROWS
 N  OBJ
 L  r128931
 G  r128932
 L  r128933
 G  r128934
 L  r129809
 G  r129810
 L  r129849
 G  r129850
 L  r54866
 L  r54867
 L  r61600
 L  r61601
 L  r54831
 L  r54832
 L  r54836
 L  r54837
 L  r54841
 L  r54842
 L  r54846
 L  r54847
 L  r54851
 L  r54852
 L  r54856
 L  r54857
 L  r54861
 L  r54862
 L  r61544
 L  r61545
 L  r61552
 L  r61553
 L  r61560
 L  r61561
 L  r61568
 L  r61569
 L  r61576
 L  r61577
 L  r61584
 L  r61585
 L  r61592
 L  r61593
COLUMNS
    MARK0000  'MARKER'                 'INTORG'
    c13431           OBJ                             0 r128931                         1
    c13431           r128932                         1 r128933                         1
    c13431           r128934                         1 r129809                         1
    c13431           r129810                         1 r129849                         1
    c13431           r129850                         1
    c13497           OBJ                             0 r128931                         1
    c13497           r128932                         1 r128933                         1
    c13497           r128934                         1 r129809                         1
    c13497           r129810                         1 r129849                         1
    c13497           r129850                         1 r54866                          1
    c13497           r54867                         -1 r61600                         -1
    c13497           r61601                          1
    c13512           OBJ                             0 r128931                         1
    c13512           r128932                         1 r128933                         1
    c13512           r128934                         1 r129809                         1
    c13512           r129810                         1 r129849                         1
    c13512           r129850                         1 r54866                          1
    c13512           r54867                         -1 r61600                         -1
    c13512           r61601                          1
    c13578           OBJ                             0 r128931                         1
    c13578           r128932                         1 r128933                         1
    c13578           r128934                         1 r129809                         1
    c13578           r129810                         1 r129849                         1
    c13578           r129850                         1 r54861                          1
    c13578           r54862                         -1 r61592                         -1
    c13578           r61593                          1
    c13593           OBJ                             0 r128931                         1
    c13593           r128932                         1 r128933                         1
    c13593           r128934                         1 r129809                         1
    c13593           r129810                         1 r129849                         1
    c13593           r129850                         1 r54861                          1
    c13593           r54862                         -1 r61592                         -1
    c13593           r61593                          1
    c13659           OBJ                             0 r128931                         1
    c13659           r128932                         1 r128933                         1
    c13659           r128934                         1 r129809                         1
    c13659           r129810                         1 r129849                         1
    c13659           r129850                         1 r54856                          1
    c13659           r54857                         -1 r61584                         -1
    c13659           r61585                          1
    c13674           OBJ                             0 r128931                         1
    c13674           r128932                         1 r128933                         1
    c13674           r128934                         1 r129809                         1
    c13674           r129810                         1 r129849                         1
    c13674           r129850                         1 r54856                          1
    c13674           r54857                         -1 r61584                         -1
    c13674           r61585                          1
    c13740           OBJ                             0 r128931                         1
    c13740           r128932                         1 r128933                         1
    c13740           r128934                         1 r129809                         1
    c13740           r129810                         1 r129849                         1
    c13740           r129850                         1 r54851                          1
    c13740           r54852                         -1 r61576                         -1
    c13740           r61577                          1
    c13755           OBJ                             0 r128931                         1
    c13755           r128932                         1 r128933                         1
    c13755           r128934                         1 r129809                         1
    c13755           r129810                         1 r129849                         1
    c13755           r129850                         1 r54851                          1
    c13755           r54852                         -1 r61576                         -1
    c13755           r61577                          1
    c13821           OBJ                             0 r128931                         1
    c13821           r128932                         1 r128933                         1
    c13821           r128934                         1 r129809                         1
    c13821           r129810                         1 r129849                         1
    c13821           r129850                         1 r54846                          1
    c13821           r54847                         -1 r61568                         -1
    c13821           r61569                          1
    c13836           OBJ                             0 r128931                         1
    c13836           r128932                         1 r128933                         1
    c13836           r128934                         1 r129809                         1
    c13836           r129810                         1 r129849                         1
    c13836           r129850                         1 r54846                          1
    c13836           r54847                         -1 r61568                         -1
    c13836           r61569                          1
    c13902           OBJ                             0 r128931                         1
    c13902           r128932                         1 r128933                         1
    c13902           r128934                         1 r129809                         1
    c13902           r129810                         1 r129849                         1
    c13902           r129850                         1 r54841                          1
    c13902           r54842                         -1 r61560                         -1
    c13902           r61561                          1
    c13917           OBJ                             0 r128931                         1
    c13917           r128932                         1 r128933                         1
    c13917           r128934                         1 r129809                         1
    c13917           r129810                         1 r129849                         1
    c13917           r129850                         1 r54841                          1
    c13917           r54842                         -1 r61560                         -1
    c13917           r61561                          1
    c13983           OBJ                             0 r128931                         1
    c13983           r128932                         1 r128933                         1
    c13983           r128934                         1 r129809                         1
    c13983           r129810                         1 r129849                         1
    c13983           r129850                         1 r54836                          1
    c13983           r54837                         -1 r61552                         -1
    c13983           r61553                          1
    c13998           OBJ                             0 r128931                         1
    c13998           r128932                         1 r128933                         1
    c13998           r128934                         1 r129809                         1
    c13998           r129810                         1 r129849                         1
    c13998           r129850                         1 r54836                          1
    c13998           r54837                         -1 r61552                         -1
    c13998           r61553                          1
    c14064           OBJ                             0 r128931                         1
    c14064           r128932                         1 r128933                         1
    c14064           r128934                         1 r129809                         1
    c14064           r129810                         1 r129849                         1
    c14064           r129850                         1 r54831                          1
    c14064           r54832                         -1 r61544                         -1
    c14064           r61545                          1
    c14079           OBJ                             0 r128931                         1
    c14079           r128932                         1 r128933                         1
    c14079           r128934                         1 r129809                         1
    c14079           r129810                         1 r129849                         1
    c14079           r129850                         1 r54831                          1
    c14079           r54832                         -1 r61544                         -1
    c14079           r61545                          1
    c13484           OBJ                             0 r128931                         1
    c13484           r128932                         1 r128933                         1
    c13484           r128934                         1 r129809                         1
    c13484           r129810                         1 r129849                         1
    c13484           r129850                         1 r54866                          1
    c13484           r54867                         -1 r61600                         -1
    c13484           r61601                          1
    MARK0001  'MARKER'                 'INTEND'
RHS
    RHS1              r128931                         1
    RHS1              r128932                         1
    RHS1              r128933                         3
    RHS1              r128934                         3
    RHS1              r129809                         4
    RHS1              r129810                         3
    RHS1              r129849                         9
    RHS1              r129850                         9
    RHS1              r54866                          5
    RHS1              r54867                         -1
    RHS1              r61600                          0
    RHS1              r61601                          0
    RHS1              r54831                          5
    RHS1              r54832                         -1
    RHS1              r54836                          5
    RHS1              r54837                         -1
    RHS1              r54841                          5
    RHS1              r54842                         -1
    RHS1              r54846                          5
    RHS1              r54847                         -1
    RHS1              r54851                          5
    RHS1              r54852                         -1
    RHS1              r54856                          5
    RHS1              r54857                         -1
    RHS1              r54861                          5
    RHS1              r54862                         -1
    RHS1              r61544                          0
    RHS1              r61545                          0
    RHS1              r61552                          0
    RHS1              r61553                          0
    RHS1              r61560                          0
    RHS1              r61561                          0
    RHS1              r61568                          0
    RHS1              r61569                          0
    RHS1              r61576                          0
    RHS1              r61577                          0
    RHS1              r61584                          0
    RHS1              r61585                          0
    RHS1              r61592                          0
    RHS1              r61593                          0
BOUNDS
 BV BND1              c13431
 BV BND1              c13497
 BV BND1              c13512
 BV BND1              c13578
 BV BND1              c13593
 BV BND1              c13659
 BV BND1              c13674
 BV BND1              c13740
 BV BND1              c13755
 BV BND1              c13821
 BV BND1              c13836
 BV BND1              c13902
 BV BND1              c13917
 BV BND1              c13983
 BV BND1              c13998
 BV BND1              c14064
 BV BND1              c14079
 BV BND1              c13484
ENDATA
