NAME          bab2_ds
OBJSENSE
 MIN
ROWS
 N  OBJ
 L  c16514
 L  c16515
 L  c16516
 L  c16517
 L  c16518
 L  c16519
 L  c16520
 L  c16521
 E  c3104
 E  c3106
 E  c3108
 E  c3109
 E  c3110
 E  c3111
 E  c3112
 E  c3113
 L  c16575
 L  c16579
 L  c16583
 L  c16589
 L  c16593
 L  c16603
 L  c16606
 L  c16610
 L  c16614
 L  c16618
 L  c16622
 L  c16626
 L  c16630
 L  c16634
 L  c16638
 L  c16642
 L  c16646
 L  c16650
 L  c16653
 L  c16657
 L  c16661
 L  c16667
 L  c16671
 L  c16681
COLUMNS
    MARK0000  'MARKER'                 'INTORG'
    x101727          OBJ                           320 c16514                         17
    x101727          c16515                          1 c16516                         17
    x101727          c16517                        -91 c16518                        -11
    x101727          c16519                         -3 c16520                        -27
    x101727          c16521                         81 c3104                          -1
    x101727          c16575                         -8 c16653                          8
    x101728          OBJ                           320 c16514                         17
    x101728          c16515                          1 c16516                         17
    x101728          c16517                        -91 c16518                        -11
    x101728          c16519                         -3 c16520                        -27
    x101728          c16521                         81 c3104                          -1
    x101728          c16579                         -8 c16657                          8
    x101729          OBJ                           320 c16514                         17
    x101729          c16515                          1 c16516                         17
    x101729          c16517                        -91 c16518                        -11
    x101729          c16519                         -3 c16520                        -27
    x101729          c16521                         81 c16583                         -8
    x101729          c16661                          8
    x101730          OBJ                           320 c16514                         17
    x101730          c16515                          1 c16516                         17
    x101730          c16517                        -91 c16518                        -11
    x101730          c16519                         -3 c16520                        -27
    x101730          c16521                         81 c3106                          -1
    x101730          c16589                         -8 c16667                          8
    x101731          OBJ                           320 c16514                         17
    x101731          c16515                          1 c16516                         17
    x101731          c16517                        -91 c16518                        -11
    x101731          c16519                         -3 c16520                        -27
    x101731          c16521                         81 c3106                          -1
    x101731          c16593                         -8 c16671                          8
    x101732          OBJ                           320 c16514                         17
    x101732          c16515                          1 c16516                         17
    x101732          c16517                        -91 c16518                        -11
    x101732          c16519                         -3 c16520                        -27
    x101732          c16521                         81 c3108                          -1
    x101732          c16603                         -8 c16681                          8
    x101733          OBJ                           320 c16514                         17
    x101733          c16515                          1 c16516                         17
    x101733          c16517                        -91 c16518                        -11
    x101733          c16519                         -3 c16520                        -27
    x101733          c16521                         81 c3108                          -1
    x101733          c16606                         -8
    x101734          OBJ                           320 c16514                         17
    x101734          c16515                          1 c16516                         17
    x101734          c16517                        -91 c16518                        -11
    x101734          c16519                         -3 c16520                        -27
    x101734          c16521                         81 c3109                          -1
    x101734          c16610                         -8
    x101735          OBJ                           320 c16514                         17
    x101735          c16515                          1 c16516                         17
    x101735          c16517                        -91 c16518                        -11
    x101735          c16519                         -3 c16520                        -27
    x101735          c16521                         81 c3109                          -1
    x101735          c16614                         -8
    x101736          OBJ                           320 c16514                         17
    x101736          c16515                          1 c16516                         17
    x101736          c16517                        -91 c16518                        -11
    x101736          c16519                         -3 c16520                        -27
    x101736          c16521                         81 c3110                          -1
    x101736          c16618                         -8
    x101737          OBJ                           320 c16514                         17
    x101737          c16515                          1 c16516                         17
    x101737          c16517                        -91 c16518                        -11
    x101737          c16519                         -3 c16520                        -27
    x101737          c16521                         81 c3110                          -1
    x101737          c16622                         -8
    x101738          OBJ                           320 c16514                         17
    x101738          c16515                          1 c16516                         17
    x101738          c16517                        -91 c16518                        -11
    x101738          c16519                         -3 c16520                        -27
    x101738          c16521                         81 c3111                          -1
    x101738          c16626                         -8
    x101739          OBJ                           320 c16514                         17
    x101739          c16515                          1 c16516                         17
    x101739          c16517                        -91 c16518                        -11
    x101739          c16519                         -3 c16520                        -27
    x101739          c16521                         81 c3111                          -1
    x101739          c16630                         -8
    x101740          OBJ                           320 c16514                         17
    x101740          c16515                          1 c16516                         17
    x101740          c16517                        -91 c16518                        -11
    x101740          c16519                         -3 c16520                        -27
    x101740          c16521                         81 c16634                         -8
    x101741          OBJ                           320 c16514                         17
    x101741          c16515                          1 c16516                         17
    x101741          c16517                        -91 c16518                        -11
    x101741          c16519                         -3 c16520                        -27
    x101741          c16521                         81 c3112                          -1
    x101741          c16638                         -8
    x101742          OBJ                           320 c16514                         17
    x101742          c16515                          1 c16516                         17
    x101742          c16517                        -91 c16518                        -11
    x101742          c16519                         -3 c16520                        -27
    x101742          c16521                         81 c3112                          -1
    x101742          c16642                         -8
    x101743          OBJ                           320 c16514                         17
    x101743          c16515                          1 c16516                         17
    x101743          c16517                        -91 c16518                        -11
    x101743          c16519                         -3 c16520                        -27
    x101743          c16521                         81 c3113                          -1
    x101743          c16646                         -8
    x101744          OBJ                           320 c16514                         17
    x101744          c16515                          1 c16516                         17
    x101744          c16517                        -91 c16518                        -11
    x101744          c16519                         -3 c16520                        -27
    x101744          c16521                         81 c3113                          -1
    x101744          c16650                         -8
    MARK0001  'MARKER'                 'INTEND'
RHS
    RHS1              c16514                          0
    RHS1              c16515                          0
    RHS1              c16516                          0
    RHS1              c16517                          0
    RHS1              c16518                          0
    RHS1              c16519                          0
    RHS1              c16520                          0
    RHS1              c16521                          0
    RHS1              c3104                           0
    RHS1              c3106                           0
    RHS1              c3108                           0
    RHS1              c3109                           0
    RHS1              c3110                           0
    RHS1              c3111                           0
    RHS1              c3112                           0
    RHS1              c3113                           0
    RHS1              c16575                          0
    RHS1              c16579                          0
    RHS1              c16583                          0
    RHS1              c16589                          0
    RHS1              c16593                          0
    RHS1              c16603                          0
    RHS1              c16606                          0
    RHS1              c16610                          0
    RHS1              c16614                          0
    RHS1              c16618                          0
    RHS1              c16622                          0
    RHS1              c16626                          0
    RHS1              c16630                          0
    RHS1              c16634                          0
    RHS1              c16638                          0
    RHS1              c16642                          0
    RHS1              c16646                          0
    RHS1              c16650                          0
    RHS1              c16653                          0
    RHS1              c16657                          0
    RHS1              c16661                          0
    RHS1              c16667                          0
    RHS1              c16671                          0
    RHS1              c16681                          0
BOUNDS
 BV BND1              x101727
 BV BND1              x101728
 BV BND1              x101729
 BV BND1              x101730
 BV BND1              x101731
 BV BND1              x101732
 BV BND1              x101733
 BV BND1              x101734
 BV BND1              x101735
 BV BND1              x101736
 BV BND1              x101737
 BV BND1              x101738
 BV BND1              x101739
 BV BND1              x101740
 BV BND1              x101741
 BV BND1              x101742
 BV BND1              x101743
 BV BND1              x101744
ENDATA
