NAME          roll3000_ds
OBJSENSE
 MIN
ROWS
 N  OBJ
 E  c5
 E  c1924
 E  c1925
 E  c1932
 E  c1933
 E  c1939
 E  c1940
 E  c1945
 E  c1946
 E  c1947
 E  c1953
 E  c1954
 E  c1955
 E  c1960
 E  c1961
 E  c1962
 E  c1967
 E  c1968
 E  c1969
 E  c1974
 E  c1975
 E  c1976
 E  c1980
 E  c1981
 E  c1982
 E  c1986
 E  c1987
 E  c1988
 E  c1992
 E  c1993
 E  c1998
 E  c1999
 E  c1938
 E  c1994
 E  c1959
 E  c2008
 E  c1844
 E  c1845
 E  c1852
 E  c1853
COLUMNS
    MARK0000  'MARKER'                 'INTORG'
    x269             OBJ                             0 c5                           -108
    x269             c1924                           1 c1925                           1
    x269             c1932                           1 c1933                           1
    x269             c1939                           1 c1940                           1
    x269             c1945                           1 c1946                           1
    x269             c1947                           1 c1953                           1
    x269             c1954                           1 c1955                           1
    x269             c1960                           1 c1961                           1
    x269             c1962                           1 c1967                           1
    x269             c1968                           1 c1969                           1
    x269             c1974                           1 c1975                           1
    x269             c1976                           1 c1980                           1
    x269             c1981                           1 c1982                           1
    x269             c1986                           1 c1987                           1
    x269             c1988                           1 c1992                           1
    x269             c1993                           1 c1998                           1
    x269             c1999                           1 c1938                           1
    x269             c1994                           1 c1959                           1
    x267             OBJ                             0 c5                           -104
    x267             c1924                           1 c1925                           1
    x267             c1932                           1 c1933                           1
    x267             c1939                           1 c1940                           1
    x267             c1945                           1 c1946                           1
    x267             c1947                           1 c1953                           1
    x267             c1954                           1 c1955                           1
    x267             c1960                           1 c1961                           1
    x267             c1962                           1 c1967                           1
    x267             c1968                           1 c1969                           1
    x267             c1974                           1 c1975                           1
    x267             c1976                           1 c1980                           1
    x267             c1981                           1 c1982                           1
    x267             c1986                           1 c1987                           1
    x267             c1988                           1 c1992                           1
    x267             c1993                           1 c1998                           1
    x267             c1999                           1 c1938                           1
    x267             c1994                           1 c1959                           1
    x267             c2008                           1
    x268             OBJ                             0 c5                            -81
    x268             c1844                           1 c1845                           1
    x268             c1852                           1 c1853                           1
    x703             OBJ                             0 c5                            -92
    x499             OBJ                             0 c5                           -100
    x499             c1924                           1 c1925                           1
    x499             c1932                           1 c1933                           1
    x499             c1939                           1 c1940                           1
    x499             c1945                           1 c1946                           1
    x499             c1947                           1 c1953                           1
    x499             c1954                           1 c1955                           1
    x499             c1960                           1 c1961                           1
    x499             c1962                           1 c1967                           1
    x499             c1968                           1 c1969                           1
    x499             c1974                           1 c1975                           1
    x499             c1976                           1 c1980                           1
    x499             c1981                           1 c1982                           1
    x499             c1986                           1 c1987                           1
    x499             c1988                           1 c1992                           1
    x499             c1993                           1 c1998                           1
    x499             c1999                           1 c1938                           1
    x499             c1994                           1 c1959                           1
    x499             c2008                           1
    x266             OBJ                             0 c5                            -78
    x266             c1844                           1 c1845                           1
    x266             c1852                           1 c1853                           1
    x375             OBJ                             0 c5                            -96
    x375             c1924                           1 c1925                           1
    x375             c1932                           1 c1933                           1
    x375             c1939                           1 c1940                           1
    x375             c1945                           1 c1946                           1
    x375             c1947                           1 c1953                           1
    x375             c1954                           1 c1955                           1
    x375             c1960                           1 c1961                           1
    x375             c1962                           1 c1967                           1
    x375             c1968                           1 c1969                           1
    x375             c1974                           1 c1975                           1
    x375             c1976                           1 c1980                           1
    x375             c1981                           1 c1982                           1
    x375             c1986                           1 c1987                           1
    x375             c1988                           1 c1992                           1
    x375             c1993                           1 c1998                           1
    x375             c1999                           1 c1938                           1
    x375             c1994                           1
    x463             OBJ                             0 c5                            -92
    x463             c1924                           1 c1925                           1
    x463             c1932                           1 c1933                           1
    x463             c1939                           1 c1940                           1
    x463             c1945                           1 c1946                           1
    x463             c1947                           1 c1953                           1
    x463             c1954                           1 c1955                           1
    x463             c1960                           1 c1961                           1
    x463             c1962                           1 c1967                           1
    x463             c1968                           1 c1969                           1
    x463             c1974                           1 c1975                           1
    x463             c1976                           1 c1980                           1
    x463             c1981                           1 c1982                           1
    x463             c1986                           1 c1987                           1
    x463             c1988                           1 c1992                           1
    x463             c1993                           1 c1998                           1
    x463             c1999                           1 c1938                           1
    x463             c1994                           1 c1959                           1
    x463             c2008                           1
    x702             OBJ                             0 c5                            -69
    x327             OBJ                             0 c5                            -92
    x327             c1924                           1 c1925                           1
    x327             c1932                           1 c1933                           1
    x327             c1939                           1 c1940                           1
    x327             c1945                           1 c1946                           1
    x327             c1947                           1 c1953                           1
    x327             c1954                           1 c1955                           1
    x327             c1960                           1 c1961                           1
    x327             c1962                           1 c1967                           1
    x327             c1968                           1 c1969                           1
    x327             c1974                           1 c1975                           1
    x327             c1976                           1 c1980                           1
    x327             c1981                           1 c1982                           1
    x327             c1986                           1 c1987                           1
    x327             c1988                           1 c1992                           1
    x327             c1993                           1 c1998                           1
    x327             c1999                           1 c1938                           1
    x327             c1994                           1 c1959                           1
    x327             c2008                           1
    x498             OBJ                             0 c5                            -75
    x498             c1844                           1 c1845                           1
    x498             c1852                           1 c1853                           1
    x429             OBJ                             0 c5                            -92
    x429             c1924                           1 c1925                           1
    x429             c1932                           1 c1933                           1
    x429             c1939                           1 c1940                           1
    x429             c1945                           1 c1946                           1
    x429             c1947                           1 c1953                           1
    x429             c1954                           1 c1955                           1
    x429             c1960                           1 c1961                           1
    x429             c1962                           1 c1967                           1
    x429             c1968                           1 c1969                           1
    x429             c1974                           1 c1975                           1
    x429             c1976                           1 c1980                           1
    x429             c1981                           1 c1982                           1
    x429             c1986                           1 c1987                           1
    x429             c1988                           1 c1992                           1
    x429             c1993                           1 c1998                           1
    x429             c1999                           1 c1994                           1
    x429             c2008                           1
    x462             OBJ                             0 c5                            -69
    x462             c1844                           1 c1845                           1
    x462             c1852                           1 c1853                           1
    x461             OBJ                             0 c5                            -84
    x461             c1924                           1 c1925                           1
    x461             c1932                           1 c1933                           1
    x461             c1939                           1 c1940                           1
    x461             c1945                           1 c1946                           1
    x461             c1947                           1 c1953                           1
    x461             c1954                           1 c1955                           1
    x461             c1960                           1 c1961                           1
    x461             c1962                           1 c1967                           1
    x461             c1968                           1 c1969                           1
    x461             c1974                           1 c1975                           1
    x461             c1976                           1 c1980                           1
    x461             c1981                           1 c1982                           1
    x461             c1986                           1 c1987                           1
    x461             c1988                           1 c1992                           1
    x461             c1993                           1 c1998                           1
    x461             c1999                           1 c1938                           1
    x461             c1994                           1 c1959                           1
    x461             c2008                           1
    x265             OBJ                             0 c5                           -100
    x265             c1924                           1 c1925                           1
    x265             c1932                           1 c1933                           1
    x265             c1939                           1 c1940                           1
    x265             c1945                           1 c1946                           1
    x265             c1947                           1 c1953                           1
    x265             c1954                           1 c1955                           1
    x265             c1960                           1 c1961                           1
    x265             c1962                           1 c1967                           1
    x265             c1968                           1 c1969                           1
    x265             c1974                           1 c1975                           1
    x265             c1976                           1 c1980                           1
    x265             c1981                           1 c1982                           1
    x265             c1986                           1 c1987                           1
    x265             c1988                           1 c1992                           1
    x265             c1993                           1 c1998                           1
    x265             c1999                           1 c1938                           1
    x265             c1959                           1
    x326             OBJ                             0 c5                            -69
    x326             c1844                           1 c1845                           1
    x326             c1852                           1 c1853                           1
    x373             OBJ                             0 c5                            -92
    x373             c1924                           1 c1925                           1
    x373             c1932                           1 c1933                           1
    x373             c1939                           1 c1940                           1
    x373             c1945                           1 c1946                           1
    x373             c1947                           1 c1953                           1
    x373             c1954                           1 c1955                           1
    x373             c1960                           1 c1961                           1
    x373             c1962                           1 c1967                           1
    x373             c1968                           1 c1969                           1
    x373             c1974                           1 c1975                           1
    x373             c1976                           1 c1980                           1
    x373             c1981                           1 c1982                           1
    x373             c1986                           1 c1987                           1
    x373             c1988                           1 c1992                           1
    x373             c1993                           1 c1998                           1
    x373             c1999                           1 c1938                           1
    x373             c1994                           1 c2008                           1
    x374             OBJ                             0 c5                            -72
    x374             c1844                           1 c1845                           1
    x374             c1852                           1 c1853                           1
    MARK0001  'MARKER'                 'INTEND'
RHS
    RHS1              c5                              0
    RHS1              c1924                           0
    RHS1              c1925                           0
    RHS1              c1932                           0
    RHS1              c1933                           0
    RHS1              c1939                           0
    RHS1              c1940                           0
    RHS1              c1945                           0
    RHS1              c1946                           0
    RHS1              c1947                           0
    RHS1              c1953                           0
    RHS1              c1954                           0
    RHS1              c1955                           0
    RHS1              c1960                           0
    RHS1              c1961                           0
    RHS1              c1962                           0
    RHS1              c1967                           0
    RHS1              c1968                           0
    RHS1              c1969                           0
    RHS1              c1974                           0
    RHS1              c1975                           0
    RHS1              c1976                           0
    RHS1              c1980                           0
    RHS1              c1981                           0
    RHS1              c1982                           0
    RHS1              c1986                           0
    RHS1              c1987                           0
    RHS1              c1988                           0
    RHS1              c1992                           0
    RHS1              c1993                           0
    RHS1              c1998                           0
    RHS1              c1999                           0
    RHS1              c1938                           0
    RHS1              c1994                           0
    RHS1              c1959                           0
    RHS1              c2008                           0
    RHS1              c1844                           0
    RHS1              c1845                           0
    RHS1              c1852                           0
    RHS1              c1853                           0
BOUNDS
 LI BND1              x269                            0
 UI BND1              x269                            2
 LI BND1              x267                            0
 UI BND1              x267                            2
 LI BND1              x268                            0
 UI BND1              x268                            2
 LI BND1              x703                            0
 UI BND1              x703                            2
 LI BND1              x499                            0
 UI BND1              x499                            2
 LI BND1              x266                            0
 UI BND1              x266                            2
 LI BND1              x375                            0
 UI BND1              x375                            2
 LI BND1              x463                            0
 UI BND1              x463                            2
 LI BND1              x702                            0
 UI BND1              x702                            2
 LI BND1              x327                            0
 UI BND1              x327                            2
 LI BND1              x498                            0
 UI BND1              x498                            2
 LI BND1              x429                            0
 UI BND1              x429                            2
 LI BND1              x462                            0
 UI BND1              x462                            2
 LI BND1              x461                            0
 UI BND1              x461                            2
 LI BND1              x265                            0
 UI BND1              x265                            2
 LI BND1              x326                            0
 UI BND1              x326                            2
 LI BND1              x373                            0
 UI BND1              x373                            2
 LI BND1              x374                            0
 UI BND1              x374                            2
ENDATA
