NAME          atlanta-ip_ds
OBJSENSE
 MIN
ROWS
 N  OBJ
 L  c808
 L  c800
 L  c18446
 L  c18503
 L  c19019
 L  c19024
 L  c19025
 L  c19028
 L  c19708
 L  c19709
 L  c20061
 L  c20121
 L  c20176
 L  c21296
 L  c21470
 L  c21638
 L  c21639
 L  c12067
 L  c12069
 L  c12070
 L  c12071
 L  c12164
 L  c12165
 L  c12452
 L  c12453
 L  c12455
 L  c12641
 L  c12825
 L  c12829
 L  c13161
 L  c13163
 L  c13164
 L  c13165
 L  c13331
 L  c13335
 L  c13337
 L  c13342
 L  c13424
 L  c13814
 L  c14345
COLUMNS
    MARK0000  'MARKER'                 'INTORG'
    x31328           OBJ                             0 c808                           -1
    x31328           c18446                       5620 c18503                       6407
    x31328           c19019                       4243 c19024                       4243
    x31328           c19025                       3719 c19028                       3719
    x31328           c19708                       8384 c19709                       8026
    x31328           c20061                       4269 c20121                       4097
    x31328           c20176                       4062 c21296                       8881
    x31328           c21470                       6394 c21638                       4013
    x31328           c21639                       4007 c12067                       5092
    x31328           c12069                       5092 c12070                       5296
    x31328           c12071                       5296 c12164                       6754
    x31328           c12165                       6545 c12452                       4565
    x31328           c12453                       4692 c12455                       4565
    x31328           c12641                       4930 c12825                       6117
    x31328           c12829                       5944 c13161                       3550
    x31328           c13163                       3550 c13164                       3113
    x31328           c13165                       3113 c13331                       4545
    x31328           c13335                       4177 c13337                       4545
    x31328           c13342                       4177 c13424                       3518
    x31328           c13814                       4398 c14345                       4392
    x91              OBJ                             1 c808                            1
    x91              c800                            1 c18446                       5620
    x91              c18503                       6407 c19019                       4243
    x91              c19024                       4243 c19025                       3719
    x91              c19028                       3719 c19708                       8384
    x91              c19709                       8026 c20061                       4269
    x91              c20121                       4097 c20176                       4062
    x91              c21296                       8881 c21470                       6394
    x91              c21638                       4013 c21639                       4007
    x91              c12067                       5092 c12069                       5092
    x91              c12070                       5296 c12071                       5296
    x91              c12164                       6754 c12165                       6545
    x91              c12452                       4565 c12453                       4692
    x91              c12455                       4565 c12641                       4930
    x91              c12825                       6117 c12829                       5944
    x91              c13161                       3550 c13163                       3550
    x91              c13164                       3113 c13165                       3113
    x91              c13331                       4545 c13335                       4177
    x91              c13337                       4545 c13342                       4177
    x91              c13424                       3518 c13814                       4398
    x91              c14345                       4392
    x31324           OBJ                             0 c808                           -1
    x79              OBJ                             1 c808                            1
    x79              c800                            1
    x31340           OBJ                             0 c808                           -1
    x93              OBJ                             3 c808                            1
    x93              c800                            3 c18446                       5620
    x93              c18503                       6407 c19019                       4243
    x93              c19024                       4243 c19025                       3719
    x93              c19028                       3719 c19708                       8384
    x93              c19709                       8026 c20061                       4269
    x93              c20121                       4097 c20176                       4062
    x93              c21296                       8881 c21470                       6394
    x93              c21638                       4013 c21639                       4007
    x93              c12067                       5092 c12069                       5092
    x93              c12070                       5296 c12071                       5296
    x93              c12164                       6754 c12165                       6545
    x93              c12452                       4565 c12453                       4692
    x93              c12455                       4565 c12641                       4930
    x93              c12825                       6117 c12829                       5944
    x93              c13161                       3550 c13163                       3550
    x93              c13164                       3113 c13165                       3113
    x93              c13331                       4545 c13335                       4177
    x93              c13337                       4545 c13342                       4177
    x93              c13424                       3518 c13814                       4398
    x93              c14345                       4392
    x127             OBJ                             1 c808                            1
    x127             c800                            1
    x81              OBJ                             3 c808                            1
    x81              c800                            3
    x37              OBJ                             1 c808                            1
    x37              c800                            1
    x33917           OBJ                             0 c18446                         92
    x33917           c18503                         92 c19019                         92
    x33917           c19024                         92 c19025                        110
    x33917           c19028                        110 c19708                        110
    x33917           c19709                         92 c20061                         92
    x33917           c20121                         92 c20176                         92
    x33917           c21296                        110 c21470                         92
    x33917           c21638                        110 c21639                         92
    x33917           c12067                         92 c12069                         92
    x33917           c12070                        110 c12071                        110
    x33917           c12164                        110 c12165                         92
    x33917           c12452                        110 c12453                         92
    x33917           c12455                        110 c12641                        110
    x33917           c12825                        110 c12829                         92
    x33917           c13161                         92 c13163                         92
    x33917           c13164                        110 c13165                        110
    x33917           c13331                         92 c13335                        110
    x33917           c13337                         92 c13342                        110
    x33917           c13424                         92 c13814                         92
    x33917           c14345                         92
    x31310           OBJ                             0 c808                           -1
    x380             OBJ                             0 c18446                        247
    x380             c18503                        247 c19019                        247
    x380             c19024                        247 c19025                        203
    x380             c19028                        203 c19708                        203
    x380             c19709                        247 c20061                        247
    x380             c20121                        247 c20176                        247
    x380             c21296                        203 c21470                        247
    x380             c21638                        203 c21639                        247
    x380             c12067                        247 c12069                        247
    x380             c12070                        203 c12071                        203
    x380             c12164                        203 c12165                        247
    x380             c12452                        203 c12453                        247
    x380             c12455                        203 c12641                        203
    x380             c12825                        203 c12829                        247
    x380             c13161                        247 c13163                        247
    x380             c13164                        203 c13165                        203
    x380             c13331                        247 c13335                        203
    x380             c13337                        247 c13342                        203
    x380             c13424                        247 c13814                        247
    x380             c14345                        247
    x7               OBJ                             1 c808                            1
    x7               c800                            1
    x817             OBJ                             0 c18446                        797
    x817             c18503                        797 c19019                        640
    x817             c19024                        640 c19025                        534
    x817             c19028                        534 c19708                        726
    x817             c19709                        797 c20061                        797
    x817             c20121                        797 c20176                        797
    x817             c21296                        534 c21470                        797
    x817             c21638                        726 c21639                        797
    x817             c12067                        640 c12069                        640
    x817             c12070                        534 c12071                        534
    x817             c12164                        534 c12165                        640
    x817             c12452                        534 c12453                        640
    x817             c12455                        534 c12641                        534
    x817             c12825                        726 c12829                        797
    x817             c13161                        797 c13163                        640
    x817             c13164                        726 c13165                        534
    x817             c13331                        797 c13335                        726
    x817             c13337                        640 c13342                        534
    x817             c13424                        797 c13814                        797
    x817             c14345                        797
    x904             OBJ                             0 c18446                        613
    x904             c18503                        613 c19019                        613
    x904             c19024                        613 c19025                        515
    x904             c19028                        515 c19708                        515
    x904             c19709                        613 c20061                        613
    x904             c20121                        613 c20176                        613
    x904             c21296                        515 c21470                        613
    x904             c21638                        515 c21639                        613
    x904             c12067                        770 c12069                        613
    x904             c12070                        707 c12071                        515
    x904             c12164                        515 c12165                        613
    x904             c12452                        515 c12453                        613
    x904             c12455                        515 c12641                        515
    x904             c12825                        515 c12829                        613
    x904             c13161                        613 c13163                        613
    x904             c13164                        515 c13165                        515
    x904             c13331                        613 c13335                        515
    x904             c13337                        613 c13342                        515
    x904             c13424                        613 c13814                        613
    x904             c14345                        613
    x10              OBJ                             5 c808                            1
    x10              c800                            5
    x9               OBJ                             3 c808                            1
    x9               c800                            3
    x94              OBJ                             5 c808                            1
    x94              c800                            5 c18446                       5620
    x94              c18503                       6407 c19019                       4243
    x94              c19024                       4243 c19025                       3719
    x94              c19028                       3719 c19708                       8384
    x94              c19709                       8026 c20061                       4269
    x94              c20121                       4097 c20176                       4062
    x94              c21296                       8881 c21470                       6394
    x94              c21638                       4013 c21639                       4007
    MARK0001  'MARKER'                 'INTEND'
RHS
    RHS1              c808                            0
    RHS1              c800                            0
    RHS1              c18446                          0
    RHS1              c18503                          0
    RHS1              c19019                          0
    RHS1              c19024                          0
    RHS1              c19025                          0
    RHS1              c19028                          0
    RHS1              c19708                          0
    RHS1              c19709                          0
    RHS1              c20061                          0
    RHS1              c20121                          0
    RHS1              c20176                          0
    RHS1              c21296                          0
    RHS1              c21470                          0
    RHS1              c21638                          0
    RHS1              c21639                          0
    RHS1              c12067                          0
    RHS1              c12069                          0
    RHS1              c12070                          0
    RHS1              c12071                          0
    RHS1              c12164                          0
    RHS1              c12165                          0
    RHS1              c12452                          0
    RHS1              c12453                          0
    RHS1              c12455                          0
    RHS1              c12641                          0
    RHS1              c12825                          0
    RHS1              c12829                          0
    RHS1              c13161                          0
    RHS1              c13163                          0
    RHS1              c13164                          0
    RHS1              c13165                          0
    RHS1              c13331                          0
    RHS1              c13335                          0
    RHS1              c13337                          0
    RHS1              c13342                          0
    RHS1              c13424                          0
    RHS1              c13814                          0
    RHS1              c14345                          0
BOUNDS
 BV BND1              x31328
 BV BND1              x91
 BV BND1              x31324
 BV BND1              x79
 BV BND1              x31340
 BV BND1              x93
 BV BND1              x127
 BV BND1              x81
 BV BND1              x37
 BV BND1              x33917
 BV BND1              x31310
 BV BND1              x380
 BV BND1              x7
 BV BND1              x817
 BV BND1              x904
 BV BND1              x10
 BV BND1              x9
 BV BND1              x94
ENDATA
