NAME          trento1_ds
OBJSENSE
 MIN
ROWS
 N  OBJ
 L  R22006
 L  R22015
 L  R22028
 L  UB
 L  R22014
 E  R209
 E  R210
 E  R211
 E  R212
 E  R213
 E  R22002
 L  R22017
 L  R22021
 L  R22033
 E  R214
 E  R215
 E  R202
 E  R199
 E  R200
 E  R201
 E  R198
 L  R22001
 L  R22016
 L  R22032
 L  R22030
 E  R98
 G  INERZIA
 E  R1
 E  R100
 E  R101
 E  R102
 E  R106
 E  R107
 E  R108
 E  R109
 E  R1321
 E  R166
 E  R167
 E  R168
 E  R169
COLUMNS
    MARK0000  'MARKER'                 'INTORG'
    X140             OBJ                         31940 R22006                          1
    X140             R22015                          1 R22028                         17
    X140             UB                          31940 R22014                          1
    X140             R209                            1 R210                            1
    X140             R211                            1 R212                            1
    X140             R213                            1 R22002                          1
    X140             R22017                          1 R22021                          1
    X140             R22033                         27 R214                            1
    X140             R215                            1 R202                            1
    X140             R199                            1 R200                            1
    X140             R201                            1 R198                            1
    X140             INERZIA                         1
    X1110            OBJ                         32155 R22006                          1
    X1110            R22015                          1 R22028                         16
    X1110            UB                          32155 R22014                          1
    X1110            R209                            1 R210                            1
    X1110            R211                            1 R212                            1
    X1110            R213                            1 R22002                          1
    X1110            R22017                          1 R22021                          1
    X1110            R22033                         26 R214                            1
    X1110            R215                            1 R202                            1
    X1110            R199                            1 R200                            1
    X1110            R201                            1 R98                             1
    X1407            OBJ                         32133 R22006                          1
    X1407            R22015                          1 R22028                         10
    X1407            UB                          32133 R22014                          1
    X1407            R209                            1 R210                            1
    X1407            R211                            1 R212                            1
    X1407            R213                            1 R22002                          1
    X1407            R22017                          1 R22021                          1
    X1407            R22033                         20 R214                            1
    X1407            R215                            1 R98                             1
    X1407            R100                            1 R101                            1
    X1407            R102                            1
    X1408            OBJ                         32133 R22006                          1
    X1408            R22015                          1 R22028                         10
    X1408            UB                          32133 R22014                          1
    X1408            R209                            1 R210                            1
    X1408            R211                            1 R212                            1
    X1408            R213                            1 R22002                          1
    X1408            R22017                          1 R22021                          1
    X1408            R22033                         20 R214                            1
    X1408            R215                            1 R1                              1
    X1345            OBJ                         32162 R22006                          1
    X1345            R22015                          1 R22028                         11
    X1345            UB                          32162 R22014                          1
    X1345            R209                            1 R210                            1
    X1345            R211                            1 R212                            1
    X1345            R213                            1 R22002                          1
    X1345            R22017                          1 R22021                          1
    X1345            R22033                         21 R202                            1
    X1345            R199                            1 R200                            1
    X1345            R201                            1 R198                            1
    X1405            OBJ                         32342 R22006                          1
    X1405            R22015                          1 R22028                         -7
    X1405            UB                          32342 R22014                          1
    X1405            R209                            1 R210                            1
    X1405            R211                            1 R212                            1
    X1405            R213                            1 R22002                          1
    X1405            R22017                          1 R22021                          1
    X1405            R22033                          3 R214                            1
    X1405            R215                            1
    X14137           OBJ                         31634 R22006                          1
    X14137           R22015                          1 R22028                        -19
    X14137           UB                          31634 R22001                          1
    X14137           R22016                          1 R22032                        -19
    X14137           R22030                          1
    X1415            OBJ                         32087 R22006                          1
    X1415            R22015                          1 R22028                        -36
    X1415            UB                          32087 R22014                          1
    X1415            R209                            1 R210                            1
    X1415            R211                            1 R212                            1
    X1415            R213                            1 R22002                          1
    X1415            R22017                          1 R22021                          1
    X1415            R22033                        -26 R214                            1
    X1415            R215                            1
    X1417            OBJ                         32352 R22006                          1
    X1417            R22015                          1 R22028                          4
    X1417            UB                          32352 R22014                          1
    X1417            R209                            1 R210                            1
    X1417            R211                            1 R212                            1
    X1417            R213                            1 R22002                          1
    X1417            R22017                          1 R22021                          1
    X1417            R22033                         14 R214                            1
    X1417            R215                            1
    X1418            OBJ                         32130 R22006                          1
    X1418            R22015                          1 R22028                          7
    X1418            UB                          32130 R22014                          1
    X1418            R209                            1 R210                            1
    X1418            R211                            1 R212                            1
    X1418            R213                            1 R22002                          1
    X1418            R22017                          1 R22021                          1
    X1418            R22033                         17 R214                            1
    X1418            R215                            1
    X14192           OBJ                         31940 R22006                          1
    X14192           R22015                          1 R22028                         17
    X14192           UB                          31940 R22014                          1
    X14192           R209                            1 R210                            1
    X14192           R211                            1 R212                            1
    X14192           R213                            1 R214                            1
    X14192           R215                            1 R202                            1
    X14192           R199                            1 R200                            1
    X14192           R201                            1 R198                            1
    X14192           R22001                          1 R22016                          1
    X14192           R22032                         17
    X1424            OBJ                         32128 R22006                          1
    X1424            R22015                          1 R22028                          5
    X1424            UB                          32128 R22014                          1
    X1424            R209                            1 R210                            1
    X1424            R211                            1 R212                            1
    X1424            R213                            1 R22002                          1
    X1424            R22017                          1 R22021                          1
    X1424            R22033                         15 R214                            1
    X1424            R215                            1
    X15751           OBJ                         32944 R22006                          1
    X15751           R22015                          1 R22028                         21
    X15751           UB                          32944 R22014                          1
    X15751           R22001                          1 R22016                          1
    X15751           R22032                         21 R22030                          1
    X1894            OBJ                         31807 R22006                          1
    X1894            R22015                          1 R22028                        -16
    X1894            UB                          31807 R22014                          1
    X1894            R22002                          1 R22017                          1
    X1894            R22021                          1 R22033                         -6
    X1894            R106                            1 R107                            1
    X1894            R108                            1 R109                            1
    X1894            R166                            1 R167                            1
    X1894            R168                            1 R169                            1
    X2584            OBJ                         31938 R22006                          1
    X2584            R22015                          1 R22028                         15
    X2584            UB                          31938 R22014                          1
    X2584            R209                            1 R210                            1
    X2584            R211                            1 R212                            1
    X2584            R213                            1 R22002                          1
    X2584            R22017                          1 R22021                          1
    X2584            R22033                         25 R214                            1
    X2584            R215                            1
    X372             OBJ                         32388 R22006                          1
    X372             R22015                          1 R22028                         13
    X372             UB                          32388 R22014                          1
    X372             R209                            1 R210                            1
    X372             R211                            1 R212                            1
    X372             R213                            1 R22002                          1
    X372             R22017                          1 R22021                          1
    X372             R22033                         23 R214                            1
    X372             R215                            1 R202                            1
    X372             R1321                           1
    X373             OBJ                         32161 R22006                          1
    X373             R22015                          1 R22028                         10
    X373             UB                          32161 R22014                          1
    X373             R209                            1 R210                            1
    X373             R211                            1 R212                            1
    X373             R213                            1 R22002                          1
    X373             R22017                          1 R22021                          1
    X373             R22033                         20 R214                            1
    X373             R215                            1 R202                            1
    X374             OBJ                         32160 R22006                          1
    X374             R22015                          1 R22028                          9
    X374             UB                          32160 R22014                          1
    X374             R209                            1 R210                            1
    X374             R211                            1 R212                            1
    X374             R213                            1 R22002                          1
    X374             R22017                          1 R22021                          1
    X374             R22033                         19 R214                            1
    X374             R215                            1 R202                            1
    MARK0001  'MARKER'                 'INTEND'
RHS
    RHS1              R22006                          0
    RHS1              R22015                          0
    RHS1              R22028                          0
    RHS1              UB                              0
    RHS1              R22014                          0
    RHS1              R209                            0
    RHS1              R210                            0
    RHS1              R211                            0
    RHS1              R212                            0
    RHS1              R213                            0
    RHS1              R22002                          0
    RHS1              R22017                          0
    RHS1              R22021                          0
    RHS1              R22033                          0
    RHS1              R214                            0
    RHS1              R215                            0
    RHS1              R202                            0
    RHS1              R199                            0
    RHS1              R200                            0
    RHS1              R201                            0
    RHS1              R198                            0
    RHS1              R22001                          0
    RHS1              R22016                          0
    RHS1              R22032                          0
    RHS1              R22030                          0
    RHS1              R98                             0
    RHS1              INERZIA                         0
    RHS1              R1                              0
    RHS1              R100                            0
    RHS1              R101                            0
    RHS1              R102                            0
    RHS1              R106                            0
    RHS1              R107                            0
    RHS1              R108                            0
    RHS1              R109                            0
    RHS1              R1321                           0
    RHS1              R166                            0
    RHS1              R167                            0
    RHS1              R168                            0
    RHS1              R169                            0
BOUNDS
 BV BND1              X140
 BV BND1              X1110
 BV BND1              X1407
 BV BND1              X1408
 BV BND1              X1345
 BV BND1              X1405
 BV BND1              X14137
 BV BND1              X1415
 BV BND1              X1417
 BV BND1              X1418
 BV BND1              X14192
 BV BND1              X1424
 BV BND1              X15751
 BV BND1              X1894
 BV BND1              X2584
 BV BND1              X372
 BV BND1              X373
 BV BND1              X374
ENDATA
