NAME          satellites2-60-fs_ds
OBJSENSE
 MIN
ROWS
 N  OBJ
 L  R13541
 L  R13573
 L  R13574
 L  R13576
 L  R13577
 L  R13578
 L  R13580
 L  R13581
 L  R13582
 L  R13583
 L  R13584
 L  R13586
 L  R13587
 L  R13588
 L  R13590
 L  R13591
 L  R13592
 L  R13594
 L  R13595
 G  R13727
 G  R13758
 G  R14037
 G  R14068
 G  R14130
 G  R14161
 G  R14192
 G  R14254
 G  R14285
 G  R14316
 G  R14347
 G  R14378
 G  R14440
 G  R14471
 G  R14502
 G  R14564
 G  R14595
 G  R14626
 E  R2501
 E  R2502
 E  R2503
COLUMNS
    MARK0000  'MARKER'                 'INTORG'
    C34175           OBJ                            -1 R13541                          1
    C34175           R13573                          1 R14037                    -237597
    C34175           R2501                          -1 R2502                          -1
    C34175           R2503                          -1
    C34176           OBJ                            -1 R13541                          1
    C34176           R13574                          1 R14068                    -237597
    C34177           OBJ                            -1 R13541                          1
    C34177           R13576                          1 R14130                    -237597
    C34178           OBJ                            -1 R13541                          1
    C34178           R13577                          1 R14161                    -237597
    C34179           OBJ                            -1 R13541                          1
    C34179           R13578                          1 R14192                    -237597
    C34180           OBJ                            -1 R13541                          1
    C34180           R13580                          1 R14254                    -237597
    C34181           OBJ                            -1 R13541                          1
    C34181           R13581                          1 R14285                    -237597
    C34182           OBJ                            -1 R13541                          1
    C34182           R13582                          1 R14316                    -237597
    C34183           OBJ                            -1 R13541                          1
    C34183           R13583                          1 R14347                    -237597
    C34184           OBJ                            -1 R13541                          1
    C34184           R13584                          1 R14378                    -237597
    C34185           OBJ                            -1 R13541                          1
    C34185           R13586                          1 R14440                    -237597
    C34186           OBJ                            -1 R13541                          1
    C34186           R13587                          1 R14471                    -237597
    C34187           OBJ                            -1 R13541                          1
    C34187           R13588                          1 R14502                    -237597
    C34188           OBJ                            -1 R13541                          1
    C34188           R13590                          1 R14564                    -237597
    C34189           OBJ                            -1 R13541                          1
    C34189           R13591                          1 R14595                    -237597
    C34190           OBJ                            -1 R13541                          1
    C34190           R13592                          1 R14626                    -237597
    C34191           OBJ                            -1 R13541                          1
    C34191           R13594                          1 R13727                    -237597
    C34192           OBJ                            -1 R13541                          1
    C34192           R13595                          1 R13758                    -237597
    MARK0001  'MARKER'                 'INTEND'
RHS
    RHS1              R13541                          1
    RHS1              R13573                          1
    RHS1              R13574                          1
    RHS1              R13576                          1
    RHS1              R13577                          1
    RHS1              R13578                          1
    RHS1              R13580                          1
    RHS1              R13581                          1
    RHS1              R13582                          1
    RHS1              R13583                          1
    RHS1              R13584                          1
    RHS1              R13586                          1
    RHS1              R13587                          1
    RHS1              R13588                          1
    RHS1              R13590                          1
    RHS1              R13591                          1
    RHS1              R13592                          1
    RHS1              R13594                          1
    RHS1              R13595                          1
    RHS1              R13727                    -237597
    RHS1              R13758                    -237597
    RHS1              R14037                    -237587
    RHS1              R14068                    -237587
    RHS1              R14130                    -237587
    RHS1              R14161                    -237587
    RHS1              R14192                    -237587
    RHS1              R14254                    -237587
    RHS1              R14285                    -237587
    RHS1              R14316                    -237587
    RHS1              R14347                    -237587
    RHS1              R14378                    -237587
    RHS1              R14440                    -237587
    RHS1              R14471                    -237587
    RHS1              R14502                    -237587
    RHS1              R14564                    -237587
    RHS1              R14595                    -237587
    RHS1              R14626                    -237587
    RHS1              R2501                           0
    RHS1              R2502                           0
    RHS1              R2503                           0
BOUNDS
 BV BND1              C34175
 BV BND1              C34176
 BV BND1              C34177
 BV BND1              C34178
 BV BND1              C34179
 BV BND1              C34180
 BV BND1              C34181
 BV BND1              C34182
 BV BND1              C34183
 BV BND1              C34184
 BV BND1              C34185
 BV BND1              C34186
 BV BND1              C34187
 BV BND1              C34188
 BV BND1              C34189
 BV BND1              C34190
 BV BND1              C34191
 BV BND1              C34192
ENDATA
