NAME          mas74_ds
OBJSENSE
 MIN
ROWS
 N  OBJ
 L  c1
 G  c10
 G  c11
 G  c12
 G  c13
 G  c2
 G  c3
 G  c4
 G  c5
 G  c6
 G  c7
 G  c8
 G  c9
COLUMNS
    MARK0000  'MARKER'                 'INTORG'
    x1               OBJ                             0 c1                              1
    x1               c10                     4.264e+09 c11                   1.51383e+09
    x1               c12                        113240 c13                        665184
    x1               c2                    3.28662e+06 c3                    2.42622e+06
    x1               c4                    3.05729e+06 c5                    2.20468e+09
    x1               c6                     3.7907e+06 c7                         758992
    x1               c8                     3.6308e+08 c9                    6.17252e+08
    x100             OBJ                             0 c1                              1
    x100             c10                     3.974e+09 c11                   1.41087e+09
    x100             c12                        294076 c13                        416564
    x100             c2                    3.38585e+06 c3                    2.26121e+06
    x100             c4                    2.84936e+06 c5                    2.05474e+09
    x100             c6                    3.53289e+06 c7                         707372
    x100             c8                    3.38386e+08 c9                    5.75272e+08
    x101             OBJ                             0 c1                              1
    x101             c10                     3.624e+09 c11                   1.28661e+09
    x101             c12                        268176 c13                        565344
    x101             c2                    3.08765e+06 c3                    2.06206e+06
    x101             c4                    2.59841e+06 c5                    1.87377e+09
    x101             c6                    3.22174e+06 c7                         645072
    x101             c8                    3.08584e+08 c9                    5.24607e+08
    x103             OBJ                             0 c1                              1
    x103             c10                   1.80776e+09 c11                   7.97388e+08
    x103             c12                        117068 c13                        350376
    x103             c2                    1.91359e+06 c3                         900158
    x103             c4                    1.61038e+06 c5                    8.17967e+08
    x103             c6                    1.99669e+06 c7                         399788
    x103             c8                    1.91247e+08 c9                    3.25129e+08
    x105             OBJ                             0 c1                              1
    x105             c10                     2.633e+09 c11                   9.34783e+08
    x105             c12                         54237 c13                        410748
    x105             c2                    2.24332e+06 c3                    1.49818e+06
    x105             c4                    1.88786e+06 c5                    1.36138e+09
    x105             c6                    2.34074e+06 c7                           7253
    x105             c8                      2.242e+08 c9                     3.8115e+08
    x106             OBJ                             0 c1                              1
    x106             c10                     4.655e+09 c11                   1.65265e+09
    x106             c12                         30966 c13                        107796
    x106             c2                    3.96606e+06 c3                     2.6487e+06
    x106             c4                    3.33764e+06 c5                    2.40685e+09
    x106             c6                     4.1383e+06 c7                         828590
    x106             c8                    3.96373e+08 c9                    6.73853e+08
    x107             OBJ                             0 c1                              1
    x107             c10                     2.923e+09 c11                   1.03774e+09
    x107             c12                        216302 c13                        455988
    x107             c2                     2.4904e+06 c3                    1.66319e+06
    x107             c4                    2.09579e+06 c5                    1.51133e+09
    x107             c6                    2.59855e+06 c7                         520294
    x107             c8                    2.48893e+08 c9                    4.23131e+08
    x11              OBJ                             0 c1                              1
    x11              c10                     1.239e+09 c11                   4.39877e+08
    x11              c12                         91686 c13                        193284
    x11              c2                    1.05563e+06 c3                         704991
    x11              c4                         888363 c5                     6.4062e+08
    x11              c6                    1.10147e+06 c7                         220542
    x11              c8                    1.05501e+08 c9                    1.79356e+08
    x110             OBJ                             0 c1                              1
    x110             c10                   3.47239e+09 c11                   1.62566e+09
    x110             c12                        338846 c13                        714324
    x110             c2                    3.90131e+06 c3                    2.60545e+06
    x110             c4                    3.28314e+06 c5                    2.36755e+09
    x110             c6                    4.07073e+06 c7                         815062
    x110             c8                    3.89902e+08 c9                    1.69679e+08
    x112             OBJ                             0 c1                              1
    x112             c10                    3.2707e+09 c11                   1.79288e+09
    x112             c12                         81548 c13                        569194
    x112             c2                    3.24902e+06 c3                    2.87345e+06
    x112             c4                    3.35342e+06 c5                    4.23848e+07
    x112             c6                    1.10147e+06 c7                         669998
    x112             c8                    2.26549e+08 c9                    3.15614e+08
    x118             OBJ                             0 c1                              1
    x118             c10                    2.8865e+09 c11                   1.74744e+09
    x118             c12                        238660 c13                        271675
    x118             c2                    4.19354e+06 c3                    2.80062e+06
    x118             c4                    3.52907e+06 c5                     2.5449e+09
    x118             c6                    4.37566e+06 c7                         649166
    x118             c8                    4.19108e+08 c9                    7.12504e+08
    x119             OBJ                             0 c1                              1
    x119             c10                      3.59e+09 c11                   7.30451e+08
    x119             c12                        138117 c13                        140392
    x119             c2                    3.05868e+06 c3                    2.04271e+06
    x119             c4                    2.57403e+06 c5                     1.8562e+09
    x119             c6                    3.19151e+06 c7                         111422
    x119             c8                    3.05688e+08 c9                    5.19685e+08
    x126             OBJ                             0 c1                              1
    x126             c10                     2.933e+09 c11                   1.04129e+09
    x126             c12                        217042 c13                        457548
    x126             c2                    2.49892e+06 c3                    1.66888e+06
    x126             c4                    2.10296e+06 c5                     1.5165e+09
    x126             c6                    2.60744e+06 c7                         522074
    x126             c8                    2.49745e+08 c9                    4.24578e+08
    x127             OBJ                             0 c1                              1
    x127             c10                     2.665e+09 c11                   9.46144e+08
    x127             c12                        197210 c13                        415740
    x127             c2                    2.27058e+06 c3                    1.51638e+06
    x127             c4                     1.9108e+06 c5                    1.37793e+09
    x127             c6                    2.36918e+06 c7                         474370
    x127             c8                    2.26925e+08 c9                    3.85783e+08
    x128             OBJ                             0 c1                              1
    x128             c10                     4.063e+09 c11                   1.44247e+09
    x128             c12                        297480 c13                        633828
    x128             c2                    3.46168e+06 c3                    2.31185e+06
    x128             c4                    2.91317e+06 c5                    2.10076e+09
    x128             c6                    3.61201e+06 c7                         723214
    x128             c8                    3.45964e+08 c9                    5.88156e+08
    x13              OBJ                             0 c1                              1
    x13              c10                   3.27041e+09 c11                   4.57238e+08
    x13              c12                        156638 c13                        684528
    x13              c2                    3.91585e+06 c3                    1.40762e+06
    x13              c4                      3.433e+06 c5                    8.65431e+08
    x13              c6                    6.06068e+06 c7                    1.40975e+06
    x13              c8                    4.75727e+08 c9                    4.66703e+08
    x130             OBJ                             0 c1                              1
    x130             c10                     1.966e+09 c11                   6.97981e+08
    x130             c12                        145484 c13                        306696
    x130             c2                    1.67503e+06 c3                    1.11865e+06
    x130             c4                    1.40962e+06 c5                    1.01651e+09
    x130             c6                    1.74777e+06 c7                         349948
    x130             c8                    1.67405e+08 c9                    2.84596e+08
    x131             OBJ                             0 c1                              1
    x131             c10                      4.54e+09 c11                   1.61182e+09
    x131             c12                        335960 c13                        708240
    x131             c2                    3.86808e+06 c3                    2.58326e+06
    x131             c4                    3.25518e+06 c5                    2.34739e+09
    x131             c6                    4.03606e+06 c7                         808120
    x131             c8                    3.86581e+08 c9                    6.57206e+08
    MARK0001  'MARKER'                 'INTEND'
RHS
    RHS1              c1                              0
    RHS1              c10                             0
    RHS1              c11                             0
    RHS1              c12                             0
    RHS1              c13                             0
    RHS1              c2                              0
    RHS1              c3                              0
    RHS1              c4                              0
    RHS1              c5                              0
    RHS1              c6                              0
    RHS1              c7                              0
    RHS1              c8                              0
    RHS1              c9                              0
BOUNDS
 BV BND1              x1
 BV BND1              x100
 BV BND1              x101
 BV BND1              x103
 BV BND1              x105
 BV BND1              x106
 BV BND1              x107
 BV BND1              x11
 BV BND1              x110
 BV BND1              x112
 BV BND1              x118
 BV BND1              x119
 BV BND1              x126
 BV BND1              x127
 BV BND1              x128
 BV BND1              x13
 BV BND1              x130
 BV BND1              x131
ENDATA
